*SPEF "ieee 1481-1999"
*DESIGN "heichips26_FAIf"
*DATE "14:10:13 Friday October 09, 2026"
*VENDOR "The OpenROAD Project"
*PROGRAM "OpenROAD"
*VERSION "dcf36133a369abc8f3c5e5738cd4d82e4903c0e0"
*DESIGN_FLOW "NAME_SCOPE LOCAL" "PIN_CAP NONE"
*DIVIDER /
*DELIMITER :
*BUS_DELIMITER []
*T_UNIT 1 NS
*C_UNIT 1 PF
*R_UNIT 1 OHM
*L_UNIT 1 HENRY

*NAME_MAP
*4 analog_0
*5 analog_1
*6 analog_2
*7 clk
*8 ena
*9 rst_n
*10 ui_in[0]
*11 ui_in[1]
*12 ui_in[2]
*13 ui_in[3]
*14 ui_in[4]
*15 ui_in[5]
*16 ui_in[6]
*17 ui_in[7]
*18 uio_in[0]
*19 uio_in[1]
*20 uio_in[2]
*21 uio_in[3]
*22 uio_in[4]
*23 uio_in[5]
*24 uio_in[6]
*25 uio_in[7]
*26 net
*27 net43
*28 net44
*29 net54
*30 net55
*31 net45
*32 net46
*33 net47
*34 net48
*35 net49
*36 net50
*37 uio_out[3]
*38 uio_out[4]
*39 net51
*40 net52
*41 net53
*42 uo_out[0]
*43 uo_out[1]
*44 uo_out[2]
*45 uo_out[3]
*46 uo_out[4]
*47 uo_out[5]
*48 uo_out[6]
*49 uo_out[7]
*50 _000_
*51 _001_
*52 _002_
*53 _003_
*54 _004_
*55 _005_
*56 _006_
*57 _007_
*58 _008_
*59 _009_
*60 _010_
*61 _011_
*62 _012_
*63 _013_
*64 _014_
*65 _015_
*66 _016_
*67 _017_
*68 _018_
*69 _019_
*70 _020_
*71 _021_
*72 _022_
*73 _023_
*74 _024_
*75 _025_
*76 _026_
*77 _027_
*78 _028_
*79 _029_
*80 _030_
*81 _031_
*82 _032_
*83 _033_
*84 _034_
*85 _035_
*86 _036_
*87 _037_
*88 _038_
*89 _039_
*90 _040_
*91 _041_
*92 _042_
*93 _043_
*94 _044_
*95 _045_
*96 _046_
*97 _047_
*98 _048_
*99 _049_
*100 _050_
*101 _051_
*102 _052_
*103 _053_
*104 _054_
*105 _055_
*106 _056_
*107 _057_
*108 _058_
*109 _059_
*110 _060_
*111 _061_
*112 _062_
*113 _063_
*114 _064_
*115 _065_
*116 _066_
*117 _067_
*118 _068_
*119 _069_
*120 _070_
*121 _071_
*122 _072_
*123 _073_
*124 _074_
*125 _075_
*126 _076_
*127 _077_
*128 _078_
*129 _079_
*130 _080_
*131 _081_
*132 _082_
*133 _083_
*134 _084_
*135 _085_
*136 _086_
*137 _087_
*138 _088_
*139 _089_
*140 _090_
*141 _091_
*142 adc_comp
*143 adc_done
*144 adc_ref_out\[0\]
*145 adc_ref_out\[1\]
*146 adc_ref_out\[2\]
*147 adc_ref_out\[3\]
*148 adc_ref_out\[4\]
*149 adc_ref_out\[5\]
*150 adc_ref_out\[6\]
*151 adc_ref_out\[7\]
*152 adc_tick
*153 cfg\[0\]
*154 cfg\[1\]
*155 cfg\[2\]
*156 cfg\[3\]
*157 clknet_0_clk
*158 clknet_3_0__leaf_clk
*159 clknet_3_1__leaf_clk
*160 clknet_3_2__leaf_clk
*161 clknet_3_3__leaf_clk
*162 clknet_3_4__leaf_clk
*163 clknet_3_5__leaf_clk
*164 clknet_3_6__leaf_clk
*165 clknet_3_7__leaf_clk
*166 dac_out\[0\]
*167 dac_out\[10\]
*168 dac_out\[11\]
*169 dac_out\[12\]
*170 dac_out\[13\]
*171 dac_out\[14\]
*172 dac_out\[15\]
*173 dac_out\[1\]
*174 dac_out\[2\]
*175 dac_out\[3\]
*176 dac_out\[4\]
*177 dac_out\[5\]
*178 dac_out\[6\]
*179 dac_out\[7\]
*180 dac_out\[8\]
*181 dac_out\[9\]
*182 dac_reg_instance\.dac_lsb\[0\]
*183 dac_reg_instance\.dac_lsb\[1\]
*184 dac_reg_instance\.dac_lsb\[2\]
*185 dac_reg_instance\.dac_lsb\[3\]
*186 dac_reg_instance\.dac_lsb\[4\]
*187 dac_reg_instance\.dac_lsb\[5\]
*188 dac_reg_instance\.dac_lsb\[6\]
*189 dac_reg_instance\.dac_lsb\[7\]
*190 net1
*191 net10
*192 net100
*193 net101
*194 net102
*195 net103
*196 net104
*197 net105
*198 net106
*199 net107
*200 net108
*201 net109
*202 net11
*203 net110
*204 net111
*205 net112
*206 net113
*207 net114
*208 net115
*209 net116
*210 net117
*211 net118
*212 net119
*213 net12
*214 net120
*215 net121
*216 net122
*217 net123
*218 net124
*219 net125
*220 net126
*221 net127
*222 net128
*223 net129
*224 net13
*225 net130
*226 net131
*227 net132
*228 net14
*229 net15
*230 net16
*231 net17
*232 net18
*233 net19
*234 net2
*235 net20
*236 net21
*237 net22
*238 net23
*239 net24
*240 net25
*241 net26
*242 net27
*243 net28
*244 net29
*245 net3
*246 net30
*247 net31
*248 net32
*249 net33
*250 net34
*251 net35
*252 net36
*253 net37
*254 net38
*255 net39
*256 net4
*257 net40
*258 net41
*259 net42
*260 net5
*261 net56
*262 net57
*263 net58
*264 net59
*265 net6
*266 net60
*267 net61
*268 net62
*269 net63
*270 net64
*271 net65
*272 net66
*273 net67
*274 net68
*275 net69
*276 net7
*277 net70
*278 net71
*279 net72
*280 net73
*281 net74
*282 net75
*283 net76
*284 net77
*285 net78
*286 net79
*287 net8
*288 net80
*289 net81
*290 net82
*291 net83
*292 net84
*293 net85
*294 net86
*295 net87
*296 net88
*297 net89
*298 net9
*299 net90
*300 net91
*301 net92
*302 net93
*303 net94
*304 net95
*305 net96
*306 net97
*307 net98
*308 net99
*309 sar_instance\.mask_next\[0\]
*310 sar_instance\.mask_next\[1\]
*311 sar_instance\.mask_next\[2\]
*312 sar_instance\.mask_next\[3\]
*313 sar_instance\.mask_next\[4\]
*314 sar_instance\.mask_next\[5\]
*315 sar_instance\.mask_next\[6\]
*316 sar_instance\.mask_next\[7\]
*317 sar_instance\.mask_next\[8\]
*318 sar_instance\.mask_reg\[0\]
*319 sar_instance\.mask_reg\[1\]
*320 sar_instance\.mask_reg\[2\]
*321 sar_instance\.mask_reg\[3\]
*322 sar_instance\.mask_reg\[4\]
*323 sar_instance\.mask_reg\[5\]
*324 sar_instance\.mask_reg\[6\]
*325 sar_instance\.mask_reg\[7\]
*326 sar_instance\.mask_reg\[8\]
*327 sar_instance\.n13\[0\]
*328 sar_instance\.n13\[1\]
*329 sar_instance\.n13\[2\]
*330 sar_instance\.n13\[3\]
*331 sar_instance\.n13\[4\]
*332 sar_instance\.n13\[5\]
*333 sar_instance\.n13\[6\]
*334 sar_instance\.n13\[7\]
*335 sar_instance\.n70
*336 FILLER_0_0
*337 FILLER_0_1001
*338 FILLER_0_1008
*339 FILLER_0_1015
*340 FILLER_0_1022
*341 FILLER_0_105
*342 FILLER_0_112
*343 FILLER_0_119
*344 FILLER_0_126
*345 FILLER_0_133
*346 FILLER_0_14
*347 FILLER_0_140
*348 FILLER_0_147
*349 FILLER_0_154
*350 FILLER_0_161
*351 FILLER_0_168
*352 FILLER_0_175
*353 FILLER_0_182
*354 FILLER_0_189
*355 FILLER_0_196
*356 FILLER_0_203
*357 FILLER_0_21
*358 FILLER_0_210
*359 FILLER_0_217
*360 FILLER_0_224
*361 FILLER_0_231
*362 FILLER_0_238
*363 FILLER_0_245
*364 FILLER_0_252
*365 FILLER_0_259
*366 FILLER_0_266
*367 FILLER_0_273
*368 FILLER_0_28
*369 FILLER_0_280
*370 FILLER_0_287
*371 FILLER_0_294
*372 FILLER_0_301
*373 FILLER_0_308
*374 FILLER_0_315
*375 FILLER_0_322
*376 FILLER_0_329
*377 FILLER_0_336
*378 FILLER_0_343
*379 FILLER_0_35
*380 FILLER_0_350
*381 FILLER_0_357
*382 FILLER_0_364
*383 FILLER_0_371
*384 FILLER_0_378
*385 FILLER_0_385
*386 FILLER_0_392
*387 FILLER_0_399
*388 FILLER_0_406
*389 FILLER_0_413
*390 FILLER_0_42
*391 FILLER_0_420
*392 FILLER_0_427
*393 FILLER_0_434
*394 FILLER_0_441
*395 FILLER_0_448
*396 FILLER_0_455
*397 FILLER_0_462
*398 FILLER_0_469
*399 FILLER_0_476
*400 FILLER_0_483
*401 FILLER_0_49
*402 FILLER_0_490
*403 FILLER_0_497
*404 FILLER_0_504
*405 FILLER_0_511
*406 FILLER_0_518
*407 FILLER_0_525
*408 FILLER_0_532
*409 FILLER_0_539
*410 FILLER_0_546
*411 FILLER_0_553
*412 FILLER_0_56
*413 FILLER_0_560
*414 FILLER_0_567
*415 FILLER_0_574
*416 FILLER_0_581
*417 FILLER_0_588
*418 FILLER_0_595
*419 FILLER_0_602
*420 FILLER_0_609
*421 FILLER_0_616
*422 FILLER_0_623
*423 FILLER_0_63
*424 FILLER_0_630
*425 FILLER_0_637
*426 FILLER_0_644
*427 FILLER_0_651
*428 FILLER_0_658
*429 FILLER_0_665
*430 FILLER_0_672
*431 FILLER_0_679
*432 FILLER_0_686
*433 FILLER_0_693
*434 FILLER_0_7
*435 FILLER_0_70
*436 FILLER_0_700
*437 FILLER_0_707
*438 FILLER_0_714
*439 FILLER_0_721
*440 FILLER_0_728
*441 FILLER_0_735
*442 FILLER_0_742
*443 FILLER_0_749
*444 FILLER_0_756
*445 FILLER_0_763
*446 FILLER_0_77
*447 FILLER_0_770
*448 FILLER_0_777
*449 FILLER_0_784
*450 FILLER_0_791
*451 FILLER_0_798
*452 FILLER_0_805
*453 FILLER_0_812
*454 FILLER_0_819
*455 FILLER_0_826
*456 FILLER_0_833
*457 FILLER_0_84
*458 FILLER_0_840
*459 FILLER_0_847
*460 FILLER_0_854
*461 FILLER_0_861
*462 FILLER_0_868
*463 FILLER_0_875
*464 FILLER_0_882
*465 FILLER_0_889
*466 FILLER_0_896
*467 FILLER_0_903
*468 FILLER_0_91
*469 FILLER_0_910
*470 FILLER_0_917
*471 FILLER_0_924
*472 FILLER_0_931
*473 FILLER_0_938
*474 FILLER_0_945
*475 FILLER_0_952
*476 FILLER_0_959
*477 FILLER_0_966
*478 FILLER_0_973
*479 FILLER_0_98
*480 FILLER_0_980
*481 FILLER_0_987
*482 FILLER_0_994
*483 FILLER_10_102
*484 FILLER_10_109
*485 FILLER_10_11
*486 FILLER_10_116
*487 FILLER_10_123
*488 FILLER_10_130
*489 FILLER_10_137
*490 FILLER_10_144
*491 FILLER_10_151
*492 FILLER_10_158
*493 FILLER_10_165
*494 FILLER_10_172
*495 FILLER_10_179
*496 FILLER_10_18
*497 FILLER_10_186
*498 FILLER_10_193
*499 FILLER_10_200
*500 FILLER_10_207
*501 FILLER_10_214
*502 FILLER_10_221
*503 FILLER_10_228
*504 FILLER_10_235
*505 FILLER_10_242
*506 FILLER_10_249
*507 FILLER_10_25
*508 FILLER_10_256
*509 FILLER_10_263
*510 FILLER_10_270
*511 FILLER_10_277
*512 FILLER_10_284
*513 FILLER_10_291
*514 FILLER_10_298
*515 FILLER_10_305
*516 FILLER_10_312
*517 FILLER_10_319
*518 FILLER_10_32
*519 FILLER_10_326
*520 FILLER_10_333
*521 FILLER_10_350
*522 FILLER_10_361
*523 FILLER_10_368
*524 FILLER_10_39
*525 FILLER_10_4
*526 FILLER_10_46
*527 FILLER_10_53
*528 FILLER_10_60
*529 FILLER_10_67
*530 FILLER_10_74
*531 FILLER_10_81
*532 FILLER_10_88
*533 FILLER_10_95
*534 FILLER_11_102
*535 FILLER_11_109
*536 FILLER_11_11
*537 FILLER_11_116
*538 FILLER_11_123
*539 FILLER_11_130
*540 FILLER_11_137
*541 FILLER_11_144
*542 FILLER_11_151
*543 FILLER_11_158
*544 FILLER_11_165
*545 FILLER_11_172
*546 FILLER_11_179
*547 FILLER_11_18
*548 FILLER_11_186
*549 FILLER_11_193
*550 FILLER_11_200
*551 FILLER_11_207
*552 FILLER_11_214
*553 FILLER_11_221
*554 FILLER_11_228
*555 FILLER_11_235
*556 FILLER_11_242
*557 FILLER_11_249
*558 FILLER_11_25
*559 FILLER_11_256
*560 FILLER_11_263
*561 FILLER_11_270
*562 FILLER_11_277
*563 FILLER_11_284
*564 FILLER_11_291
*565 FILLER_11_316
*566 FILLER_11_32
*567 FILLER_11_323
*568 FILLER_11_330
*569 FILLER_11_332
*570 FILLER_11_39
*571 FILLER_11_4
*572 FILLER_11_46
*573 FILLER_11_53
*574 FILLER_11_60
*575 FILLER_11_67
*576 FILLER_11_74
*577 FILLER_11_81
*578 FILLER_11_88
*579 FILLER_11_95
*580 FILLER_12_102
*581 FILLER_12_109
*582 FILLER_12_11
*583 FILLER_12_116
*584 FILLER_12_123
*585 FILLER_12_130
*586 FILLER_12_137
*587 FILLER_12_144
*588 FILLER_12_151
*589 FILLER_12_158
*590 FILLER_12_165
*591 FILLER_12_172
*592 FILLER_12_179
*593 FILLER_12_18
*594 FILLER_12_186
*595 FILLER_12_193
*596 FILLER_12_200
*597 FILLER_12_207
*598 FILLER_12_214
*599 FILLER_12_221
*600 FILLER_12_228
*601 FILLER_12_235
*602 FILLER_12_242
*603 FILLER_12_249
*604 FILLER_12_25
*605 FILLER_12_256
*606 FILLER_12_263
*607 FILLER_12_270
*608 FILLER_12_277
*609 FILLER_12_279
*610 FILLER_12_317
*611 FILLER_12_32
*612 FILLER_12_329
*613 FILLER_12_331
*614 FILLER_12_39
*615 FILLER_12_4
*616 FILLER_12_46
*617 FILLER_12_53
*618 FILLER_12_60
*619 FILLER_12_67
*620 FILLER_12_74
*621 FILLER_12_81
*622 FILLER_12_88
*623 FILLER_12_95
*624 FILLER_13_102
*625 FILLER_13_109
*626 FILLER_13_11
*627 FILLER_13_116
*628 FILLER_13_123
*629 FILLER_13_130
*630 FILLER_13_137
*631 FILLER_13_144
*632 FILLER_13_151
*633 FILLER_13_158
*634 FILLER_13_165
*635 FILLER_13_172
*636 FILLER_13_179
*637 FILLER_13_18
*638 FILLER_13_186
*639 FILLER_13_193
*640 FILLER_13_200
*641 FILLER_13_207
*642 FILLER_13_214
*643 FILLER_13_221
*644 FILLER_13_228
*645 FILLER_13_235
*646 FILLER_13_242
*647 FILLER_13_249
*648 FILLER_13_25
*649 FILLER_13_256
*650 FILLER_13_263
*651 FILLER_13_270
*652 FILLER_13_277
*653 FILLER_13_32
*654 FILLER_13_351
*655 FILLER_13_361
*656 FILLER_13_368
*657 FILLER_13_39
*658 FILLER_13_4
*659 FILLER_13_46
*660 FILLER_13_53
*661 FILLER_13_60
*662 FILLER_13_67
*663 FILLER_13_74
*664 FILLER_13_81
*665 FILLER_13_88
*666 FILLER_13_95
*667 FILLER_14_102
*668 FILLER_14_109
*669 FILLER_14_11
*670 FILLER_14_116
*671 FILLER_14_123
*672 FILLER_14_130
*673 FILLER_14_137
*674 FILLER_14_144
*675 FILLER_14_151
*676 FILLER_14_158
*677 FILLER_14_165
*678 FILLER_14_172
*679 FILLER_14_179
*680 FILLER_14_18
*681 FILLER_14_186
*682 FILLER_14_193
*683 FILLER_14_200
*684 FILLER_14_207
*685 FILLER_14_214
*686 FILLER_14_221
*687 FILLER_14_228
*688 FILLER_14_235
*689 FILLER_14_242
*690 FILLER_14_249
*691 FILLER_14_25
*692 FILLER_14_256
*693 FILLER_14_309
*694 FILLER_14_313
*695 FILLER_14_32
*696 FILLER_14_39
*697 FILLER_14_4
*698 FILLER_14_46
*699 FILLER_14_53
*700 FILLER_14_60
*701 FILLER_14_67
*702 FILLER_14_74
*703 FILLER_14_81
*704 FILLER_14_88
*705 FILLER_14_95
*706 FILLER_15_104
*707 FILLER_15_111
*708 FILLER_15_118
*709 FILLER_15_125
*710 FILLER_15_13
*711 FILLER_15_132
*712 FILLER_15_139
*713 FILLER_15_146
*714 FILLER_15_153
*715 FILLER_15_160
*716 FILLER_15_167
*717 FILLER_15_174
*718 FILLER_15_181
*719 FILLER_15_188
*720 FILLER_15_195
*721 FILLER_15_20
*722 FILLER_15_202
*723 FILLER_15_209
*724 FILLER_15_216
*725 FILLER_15_223
*726 FILLER_15_230
*727 FILLER_15_237
*728 FILLER_15_244
*729 FILLER_15_251
*730 FILLER_15_258
*731 FILLER_15_265
*732 FILLER_15_27
*733 FILLER_15_276
*734 FILLER_15_324
*735 FILLER_15_331
*736 FILLER_15_34
*737 FILLER_15_359
*738 FILLER_15_366
*739 FILLER_15_368
*740 FILLER_15_41
*741 FILLER_15_48
*742 FILLER_15_55
*743 FILLER_15_62
*744 FILLER_15_69
*745 FILLER_15_76
*746 FILLER_15_8
*747 FILLER_15_83
*748 FILLER_15_90
*749 FILLER_15_97
*750 FILLER_16_105
*751 FILLER_16_112
*752 FILLER_16_119
*753 FILLER_16_126
*754 FILLER_16_13
*755 FILLER_16_133
*756 FILLER_16_140
*757 FILLER_16_147
*758 FILLER_16_154
*759 FILLER_16_161
*760 FILLER_16_168
*761 FILLER_16_175
*762 FILLER_16_182
*763 FILLER_16_189
*764 FILLER_16_196
*765 FILLER_16_20
*766 FILLER_16_203
*767 FILLER_16_210
*768 FILLER_16_217
*769 FILLER_16_224
*770 FILLER_16_231
*771 FILLER_16_238
*772 FILLER_16_24
*773 FILLER_16_245
*774 FILLER_16_252
*775 FILLER_16_259
*776 FILLER_16_263
*777 FILLER_16_292
*778 FILLER_16_296
*779 FILLER_16_334
*780 FILLER_16_351
*781 FILLER_16_355
*782 FILLER_16_366
*783 FILLER_16_368
*784 FILLER_16_49
*785 FILLER_16_56
*786 FILLER_16_63
*787 FILLER_16_70
*788 FILLER_16_77
*789 FILLER_16_8
*790 FILLER_16_84
*791 FILLER_16_91
*792 FILLER_16_98
*793 FILLER_17_106
*794 FILLER_17_113
*795 FILLER_17_120
*796 FILLER_17_127
*797 FILLER_17_134
*798 FILLER_17_141
*799 FILLER_17_148
*800 FILLER_17_155
*801 FILLER_17_162
*802 FILLER_17_169
*803 FILLER_17_176
*804 FILLER_17_183
*805 FILLER_17_190
*806 FILLER_17_197
*807 FILLER_17_204
*808 FILLER_17_211
*809 FILLER_17_218
*810 FILLER_17_225
*811 FILLER_17_232
*812 FILLER_17_239
*813 FILLER_17_246
*814 FILLER_17_253
*815 FILLER_17_260
*816 FILLER_17_267
*817 FILLER_17_27
*818 FILLER_17_274
*819 FILLER_17_281
*820 FILLER_17_302
*821 FILLER_17_304
*822 FILLER_17_64
*823 FILLER_17_71
*824 FILLER_17_78
*825 FILLER_17_85
*826 FILLER_17_92
*827 FILLER_17_99
*828 FILLER_18_106
*829 FILLER_18_113
*830 FILLER_18_120
*831 FILLER_18_127
*832 FILLER_18_134
*833 FILLER_18_141
*834 FILLER_18_148
*835 FILLER_18_155
*836 FILLER_18_162
*837 FILLER_18_169
*838 FILLER_18_176
*839 FILLER_18_183
*840 FILLER_18_190
*841 FILLER_18_197
*842 FILLER_18_204
*843 FILLER_18_211
*844 FILLER_18_218
*845 FILLER_18_225
*846 FILLER_18_232
*847 FILLER_18_239
*848 FILLER_18_246
*849 FILLER_18_253
*850 FILLER_18_260
*851 FILLER_18_267
*852 FILLER_18_274
*853 FILLER_18_286
*854 FILLER_18_324
*855 FILLER_18_328
*856 FILLER_18_366
*857 FILLER_18_368
*858 FILLER_18_38
*859 FILLER_18_71
*860 FILLER_18_78
*861 FILLER_18_85
*862 FILLER_18_92
*863 FILLER_18_99
*864 FILLER_19_104
*865 FILLER_19_111
*866 FILLER_19_118
*867 FILLER_19_125
*868 FILLER_19_132
*869 FILLER_19_139
*870 FILLER_19_146
*871 FILLER_19_153
*872 FILLER_19_160
*873 FILLER_19_167
*874 FILLER_19_174
*875 FILLER_19_181
*876 FILLER_19_188
*877 FILLER_19_195
*878 FILLER_19_202
*879 FILLER_19_209
*880 FILLER_19_216
*881 FILLER_19_223
*882 FILLER_19_230
*883 FILLER_19_237
*884 FILLER_19_244
*885 FILLER_19_251
*886 FILLER_19_258
*887 FILLER_19_265
*888 FILLER_19_272
*889 FILLER_19_303
*890 FILLER_19_83
*891 FILLER_19_90
*892 FILLER_19_97
*893 FILLER_1_0
*894 FILLER_1_105
*895 FILLER_1_112
*896 FILLER_1_119
*897 FILLER_1_126
*898 FILLER_1_133
*899 FILLER_1_14
*900 FILLER_1_140
*901 FILLER_1_147
*902 FILLER_1_154
*903 FILLER_1_161
*904 FILLER_1_168
*905 FILLER_1_175
*906 FILLER_1_182
*907 FILLER_1_189
*908 FILLER_1_196
*909 FILLER_1_203
*910 FILLER_1_21
*911 FILLER_1_210
*912 FILLER_1_217
*913 FILLER_1_224
*914 FILLER_1_231
*915 FILLER_1_238
*916 FILLER_1_245
*917 FILLER_1_252
*918 FILLER_1_259
*919 FILLER_1_266
*920 FILLER_1_273
*921 FILLER_1_28
*922 FILLER_1_280
*923 FILLER_1_287
*924 FILLER_1_294
*925 FILLER_1_301
*926 FILLER_1_308
*927 FILLER_1_315
*928 FILLER_1_322
*929 FILLER_1_329
*930 FILLER_1_336
*931 FILLER_1_343
*932 FILLER_1_35
*933 FILLER_1_350
*934 FILLER_1_357
*935 FILLER_1_364
*936 FILLER_1_368
*937 FILLER_1_42
*938 FILLER_1_49
*939 FILLER_1_56
*940 FILLER_1_63
*941 FILLER_1_7
*942 FILLER_1_70
*943 FILLER_1_77
*944 FILLER_1_84
*945 FILLER_1_91
*946 FILLER_1_98
*947 FILLER_20_0
*948 FILLER_20_104
*949 FILLER_20_111
*950 FILLER_20_118
*951 FILLER_20_125
*952 FILLER_20_132
*953 FILLER_20_139
*954 FILLER_20_146
*955 FILLER_20_153
*956 FILLER_20_160
*957 FILLER_20_167
*958 FILLER_20_174
*959 FILLER_20_181
*960 FILLER_20_188
*961 FILLER_20_195
*962 FILLER_20_20
*963 FILLER_20_202
*964 FILLER_20_209
*965 FILLER_20_216
*966 FILLER_20_223
*967 FILLER_20_230
*968 FILLER_20_237
*969 FILLER_20_244
*970 FILLER_20_251
*971 FILLER_20_258
*972 FILLER_20_265
*973 FILLER_20_272
*974 FILLER_20_279
*975 FILLER_20_307
*976 FILLER_20_48
*977 FILLER_20_76
*978 FILLER_20_83
*979 FILLER_20_90
*980 FILLER_20_97
*981 FILLER_21_100
*982 FILLER_21_107
*983 FILLER_21_114
*984 FILLER_21_121
*985 FILLER_21_128
*986 FILLER_21_135
*987 FILLER_21_142
*988 FILLER_21_149
*989 FILLER_21_156
*990 FILLER_21_163
*991 FILLER_21_170
*992 FILLER_21_177
*993 FILLER_21_184
*994 FILLER_21_191
*995 FILLER_21_198
*996 FILLER_21_205
*997 FILLER_21_212
*998 FILLER_21_219
*999 FILLER_21_226
*1000 FILLER_21_233
*1001 FILLER_21_240
*1002 FILLER_21_247
*1003 FILLER_21_254
*1004 FILLER_21_261
*1005 FILLER_21_268
*1006 FILLER_21_275
*1007 FILLER_21_282
*1008 FILLER_21_306
*1009 FILLER_21_340
*1010 FILLER_21_36
*1011 FILLER_21_360
*1012 FILLER_21_367
*1013 FILLER_21_86
*1014 FILLER_21_93
*1015 FILLER_22_102
*1016 FILLER_22_109
*1017 FILLER_22_116
*1018 FILLER_22_123
*1019 FILLER_22_130
*1020 FILLER_22_137
*1021 FILLER_22_144
*1022 FILLER_22_151
*1023 FILLER_22_158
*1024 FILLER_22_165
*1025 FILLER_22_172
*1026 FILLER_22_179
*1027 FILLER_22_186
*1028 FILLER_22_193
*1029 FILLER_22_200
*1030 FILLER_22_207
*1031 FILLER_22_214
*1032 FILLER_22_221
*1033 FILLER_22_228
*1034 FILLER_22_235
*1035 FILLER_22_242
*1036 FILLER_22_249
*1037 FILLER_22_256
*1038 FILLER_22_263
*1039 FILLER_22_270
*1040 FILLER_22_277
*1041 FILLER_22_284
*1042 FILLER_22_291
*1043 FILLER_22_302
*1044 FILLER_22_309
*1045 FILLER_22_313
*1046 FILLER_22_325
*1047 FILLER_22_4
*1048 FILLER_22_41
*1049 FILLER_22_8
*1050 FILLER_22_88
*1051 FILLER_22_95
*1052 FILLER_23_104
*1053 FILLER_23_11
*1054 FILLER_23_111
*1055 FILLER_23_118
*1056 FILLER_23_122
*1057 FILLER_23_137
*1058 FILLER_23_144
*1059 FILLER_23_151
*1060 FILLER_23_158
*1061 FILLER_23_165
*1062 FILLER_23_172
*1063 FILLER_23_179
*1064 FILLER_23_186
*1065 FILLER_23_193
*1066 FILLER_23_200
*1067 FILLER_23_207
*1068 FILLER_23_214
*1069 FILLER_23_221
*1070 FILLER_23_228
*1071 FILLER_23_235
*1072 FILLER_23_242
*1073 FILLER_23_249
*1074 FILLER_23_256
*1075 FILLER_23_263
*1076 FILLER_23_270
*1077 FILLER_23_277
*1078 FILLER_23_284
*1079 FILLER_23_291
*1080 FILLER_23_306
*1081 FILLER_23_313
*1082 FILLER_23_341
*1083 FILLER_23_360
*1084 FILLER_23_367
*1085 FILLER_23_4
*1086 FILLER_23_90
*1087 FILLER_23_97
*1088 FILLER_24_106
*1089 FILLER_24_11
*1090 FILLER_24_113
*1091 FILLER_24_120
*1092 FILLER_24_127
*1093 FILLER_24_134
*1094 FILLER_24_141
*1095 FILLER_24_148
*1096 FILLER_24_15
*1097 FILLER_24_155
*1098 FILLER_24_162
*1099 FILLER_24_169
*1100 FILLER_24_176
*1101 FILLER_24_183
*1102 FILLER_24_190
*1103 FILLER_24_197
*1104 FILLER_24_204
*1105 FILLER_24_211
*1106 FILLER_24_218
*1107 FILLER_24_225
*1108 FILLER_24_232
*1109 FILLER_24_239
*1110 FILLER_24_246
*1111 FILLER_24_253
*1112 FILLER_24_260
*1113 FILLER_24_267
*1114 FILLER_24_274
*1115 FILLER_24_281
*1116 FILLER_24_288
*1117 FILLER_24_295
*1118 FILLER_24_302
*1119 FILLER_24_309
*1120 FILLER_24_316
*1121 FILLER_24_33
*1122 FILLER_24_330
*1123 FILLER_24_35
*1124 FILLER_24_4
*1125 FILLER_24_50
*1126 FILLER_24_57
*1127 FILLER_25_11
*1128 FILLER_25_118
*1129 FILLER_25_125
*1130 FILLER_25_132
*1131 FILLER_25_139
*1132 FILLER_25_146
*1133 FILLER_25_153
*1134 FILLER_25_160
*1135 FILLER_25_167
*1136 FILLER_25_174
*1137 FILLER_25_18
*1138 FILLER_25_181
*1139 FILLER_25_188
*1140 FILLER_25_195
*1141 FILLER_25_20
*1142 FILLER_25_202
*1143 FILLER_25_209
*1144 FILLER_25_216
*1145 FILLER_25_223
*1146 FILLER_25_230
*1147 FILLER_25_237
*1148 FILLER_25_244
*1149 FILLER_25_251
*1150 FILLER_25_258
*1151 FILLER_25_265
*1152 FILLER_25_272
*1153 FILLER_25_279
*1154 FILLER_25_286
*1155 FILLER_25_293
*1156 FILLER_25_300
*1157 FILLER_25_307
*1158 FILLER_25_314
*1159 FILLER_25_4
*1160 FILLER_25_72
*1161 FILLER_26_103
*1162 FILLER_26_105
*1163 FILLER_26_11
*1164 FILLER_26_115
*1165 FILLER_26_122
*1166 FILLER_26_129
*1167 FILLER_26_136
*1168 FILLER_26_143
*1169 FILLER_26_15
*1170 FILLER_26_150
*1171 FILLER_26_157
*1172 FILLER_26_164
*1173 FILLER_26_171
*1174 FILLER_26_178
*1175 FILLER_26_185
*1176 FILLER_26_192
*1177 FILLER_26_199
*1178 FILLER_26_206
*1179 FILLER_26_213
*1180 FILLER_26_220
*1181 FILLER_26_227
*1182 FILLER_26_234
*1183 FILLER_26_241
*1184 FILLER_26_248
*1185 FILLER_26_255
*1186 FILLER_26_262
*1187 FILLER_26_269
*1188 FILLER_26_276
*1189 FILLER_26_283
*1190 FILLER_26_290
*1191 FILLER_26_297
*1192 FILLER_26_304
*1193 FILLER_26_311
*1194 FILLER_26_318
*1195 FILLER_26_325
*1196 FILLER_26_330
*1197 FILLER_26_337
*1198 FILLER_26_339
*1199 FILLER_26_350
*1200 FILLER_26_354
*1201 FILLER_26_365
*1202 FILLER_26_4
*1203 FILLER_26_57
*1204 FILLER_26_78
*1205 FILLER_27_128
*1206 FILLER_27_13
*1207 FILLER_27_135
*1208 FILLER_27_142
*1209 FILLER_27_149
*1210 FILLER_27_156
*1211 FILLER_27_163
*1212 FILLER_27_170
*1213 FILLER_27_177
*1214 FILLER_27_184
*1215 FILLER_27_191
*1216 FILLER_27_198
*1217 FILLER_27_205
*1218 FILLER_27_212
*1219 FILLER_27_219
*1220 FILLER_27_226
*1221 FILLER_27_233
*1222 FILLER_27_240
*1223 FILLER_27_247
*1224 FILLER_27_254
*1225 FILLER_27_265
*1226 FILLER_27_272
*1227 FILLER_27_279
*1228 FILLER_27_28
*1229 FILLER_27_286
*1230 FILLER_27_293
*1231 FILLER_27_30
*1232 FILLER_27_300
*1233 FILLER_27_307
*1234 FILLER_27_314
*1235 FILLER_27_321
*1236 FILLER_27_328
*1237 FILLER_27_335
*1238 FILLER_27_348
*1239 FILLER_27_355
*1240 FILLER_27_36
*1241 FILLER_27_362
*1242 FILLER_27_4
*1243 FILLER_27_74
*1244 FILLER_27_8
*1245 FILLER_27_89
*1246 FILLER_27_99
*1247 FILLER_28_0
*1248 FILLER_28_127
*1249 FILLER_28_134
*1250 FILLER_28_141
*1251 FILLER_28_148
*1252 FILLER_28_155
*1253 FILLER_28_162
*1254 FILLER_28_169
*1255 FILLER_28_176
*1256 FILLER_28_183
*1257 FILLER_28_198
*1258 FILLER_28_205
*1259 FILLER_28_212
*1260 FILLER_28_219
*1261 FILLER_28_226
*1262 FILLER_28_233
*1263 FILLER_28_240
*1264 FILLER_28_247
*1265 FILLER_28_254
*1266 FILLER_28_261
*1267 FILLER_28_268
*1268 FILLER_28_275
*1269 FILLER_28_282
*1270 FILLER_28_289
*1271 FILLER_28_296
*1272 FILLER_28_303
*1273 FILLER_28_310
*1274 FILLER_28_317
*1275 FILLER_28_324
*1276 FILLER_28_331
*1277 FILLER_28_338
*1278 FILLER_28_345
*1279 FILLER_28_352
*1280 FILLER_28_359
*1281 FILLER_28_366
*1282 FILLER_28_368
*1283 FILLER_28_70
*1284 FILLER_28_86
*1285 FILLER_29_11
*1286 FILLER_29_132
*1287 FILLER_29_139
*1288 FILLER_29_146
*1289 FILLER_29_153
*1290 FILLER_29_160
*1291 FILLER_29_167
*1292 FILLER_29_174
*1293 FILLER_29_18
*1294 FILLER_29_181
*1295 FILLER_29_188
*1296 FILLER_29_195
*1297 FILLER_29_20
*1298 FILLER_29_202
*1299 FILLER_29_209
*1300 FILLER_29_216
*1301 FILLER_29_223
*1302 FILLER_29_230
*1303 FILLER_29_237
*1304 FILLER_29_244
*1305 FILLER_29_251
*1306 FILLER_29_258
*1307 FILLER_29_265
*1308 FILLER_29_272
*1309 FILLER_29_279
*1310 FILLER_29_286
*1311 FILLER_29_309
*1312 FILLER_29_316
*1313 FILLER_29_323
*1314 FILLER_29_330
*1315 FILLER_29_337
*1316 FILLER_29_34
*1317 FILLER_29_344
*1318 FILLER_29_351
*1319 FILLER_29_358
*1320 FILLER_29_365
*1321 FILLER_29_4
*1322 FILLER_29_69
*1323 FILLER_29_77
*1324 FILLER_2_102
*1325 FILLER_2_109
*1326 FILLER_2_11
*1327 FILLER_2_116
*1328 FILLER_2_123
*1329 FILLER_2_130
*1330 FILLER_2_137
*1331 FILLER_2_144
*1332 FILLER_2_151
*1333 FILLER_2_158
*1334 FILLER_2_165
*1335 FILLER_2_172
*1336 FILLER_2_179
*1337 FILLER_2_18
*1338 FILLER_2_186
*1339 FILLER_2_193
*1340 FILLER_2_200
*1341 FILLER_2_207
*1342 FILLER_2_214
*1343 FILLER_2_221
*1344 FILLER_2_228
*1345 FILLER_2_235
*1346 FILLER_2_242
*1347 FILLER_2_249
*1348 FILLER_2_25
*1349 FILLER_2_256
*1350 FILLER_2_263
*1351 FILLER_2_270
*1352 FILLER_2_277
*1353 FILLER_2_284
*1354 FILLER_2_291
*1355 FILLER_2_298
*1356 FILLER_2_305
*1357 FILLER_2_312
*1358 FILLER_2_319
*1359 FILLER_2_32
*1360 FILLER_2_326
*1361 FILLER_2_333
*1362 FILLER_2_340
*1363 FILLER_2_347
*1364 FILLER_2_354
*1365 FILLER_2_361
*1366 FILLER_2_368
*1367 FILLER_2_39
*1368 FILLER_2_4
*1369 FILLER_2_46
*1370 FILLER_2_53
*1371 FILLER_2_60
*1372 FILLER_2_67
*1373 FILLER_2_74
*1374 FILLER_2_81
*1375 FILLER_2_88
*1376 FILLER_2_95
*1377 FILLER_30_115
*1378 FILLER_30_117
*1379 FILLER_30_127
*1380 FILLER_30_134
*1381 FILLER_30_141
*1382 FILLER_30_148
*1383 FILLER_30_155
*1384 FILLER_30_162
*1385 FILLER_30_169
*1386 FILLER_30_176
*1387 FILLER_30_183
*1388 FILLER_30_190
*1389 FILLER_30_197
*1390 FILLER_30_204
*1391 FILLER_30_211
*1392 FILLER_30_218
*1393 FILLER_30_225
*1394 FILLER_30_232
*1395 FILLER_30_239
*1396 FILLER_30_246
*1397 FILLER_30_253
*1398 FILLER_30_260
*1399 FILLER_30_267
*1400 FILLER_30_274
*1401 FILLER_30_281
*1402 FILLER_30_288
*1403 FILLER_30_295
*1404 FILLER_30_302
*1405 FILLER_30_309
*1406 FILLER_30_316
*1407 FILLER_30_323
*1408 FILLER_30_330
*1409 FILLER_30_337
*1410 FILLER_30_344
*1411 FILLER_30_351
*1412 FILLER_30_358
*1413 FILLER_30_365
*1414 FILLER_30_4
*1415 FILLER_30_44
*1416 FILLER_30_46
*1417 FILLER_30_66
*1418 FILLER_30_68
*1419 FILLER_30_8
*1420 FILLER_31_119
*1421 FILLER_31_126
*1422 FILLER_31_133
*1423 FILLER_31_140
*1424 FILLER_31_147
*1425 FILLER_31_154
*1426 FILLER_31_161
*1427 FILLER_31_168
*1428 FILLER_31_175
*1429 FILLER_31_182
*1430 FILLER_31_189
*1431 FILLER_31_196
*1432 FILLER_31_203
*1433 FILLER_31_210
*1434 FILLER_31_217
*1435 FILLER_31_224
*1436 FILLER_31_231
*1437 FILLER_31_238
*1438 FILLER_31_245
*1439 FILLER_31_252
*1440 FILLER_31_259
*1441 FILLER_31_266
*1442 FILLER_31_273
*1443 FILLER_31_280
*1444 FILLER_31_287
*1445 FILLER_31_294
*1446 FILLER_31_301
*1447 FILLER_31_308
*1448 FILLER_31_315
*1449 FILLER_31_32
*1450 FILLER_31_322
*1451 FILLER_31_329
*1452 FILLER_31_336
*1453 FILLER_31_343
*1454 FILLER_31_350
*1455 FILLER_31_357
*1456 FILLER_31_364
*1457 FILLER_31_368
*1458 FILLER_31_4
*1459 FILLER_31_42
*1460 FILLER_31_44
*1461 FILLER_31_68
*1462 FILLER_32_122
*1463 FILLER_32_129
*1464 FILLER_32_136
*1465 FILLER_32_143
*1466 FILLER_32_150
*1467 FILLER_32_157
*1468 FILLER_32_164
*1469 FILLER_32_171
*1470 FILLER_32_178
*1471 FILLER_32_185
*1472 FILLER_32_192
*1473 FILLER_32_199
*1474 FILLER_32_206
*1475 FILLER_32_213
*1476 FILLER_32_220
*1477 FILLER_32_227
*1478 FILLER_32_234
*1479 FILLER_32_241
*1480 FILLER_32_248
*1481 FILLER_32_255
*1482 FILLER_32_262
*1483 FILLER_32_269
*1484 FILLER_32_276
*1485 FILLER_32_283
*1486 FILLER_32_290
*1487 FILLER_32_297
*1488 FILLER_32_304
*1489 FILLER_32_311
*1490 FILLER_32_318
*1491 FILLER_32_325
*1492 FILLER_32_332
*1493 FILLER_32_339
*1494 FILLER_32_346
*1495 FILLER_32_353
*1496 FILLER_32_360
*1497 FILLER_32_367
*1498 FILLER_32_4
*1499 FILLER_32_53
*1500 FILLER_32_55
*1501 FILLER_32_70
*1502 FILLER_33_115
*1503 FILLER_33_122
*1504 FILLER_33_129
*1505 FILLER_33_136
*1506 FILLER_33_143
*1507 FILLER_33_150
*1508 FILLER_33_157
*1509 FILLER_33_164
*1510 FILLER_33_171
*1511 FILLER_33_178
*1512 FILLER_33_185
*1513 FILLER_33_192
*1514 FILLER_33_199
*1515 FILLER_33_206
*1516 FILLER_33_213
*1517 FILLER_33_220
*1518 FILLER_33_227
*1519 FILLER_33_234
*1520 FILLER_33_241
*1521 FILLER_33_248
*1522 FILLER_33_255
*1523 FILLER_33_262
*1524 FILLER_33_269
*1525 FILLER_33_276
*1526 FILLER_33_283
*1527 FILLER_33_290
*1528 FILLER_33_297
*1529 FILLER_33_304
*1530 FILLER_33_311
*1531 FILLER_33_318
*1532 FILLER_33_325
*1533 FILLER_33_33
*1534 FILLER_33_332
*1535 FILLER_33_339
*1536 FILLER_33_346
*1537 FILLER_33_353
*1538 FILLER_33_360
*1539 FILLER_33_367
*1540 FILLER_33_4
*1541 FILLER_34_103
*1542 FILLER_34_11
*1543 FILLER_34_110
*1544 FILLER_34_117
*1545 FILLER_34_124
*1546 FILLER_34_131
*1547 FILLER_34_138
*1548 FILLER_34_145
*1549 FILLER_34_152
*1550 FILLER_34_159
*1551 FILLER_34_166
*1552 FILLER_34_173
*1553 FILLER_34_180
*1554 FILLER_34_187
*1555 FILLER_34_194
*1556 FILLER_34_201
*1557 FILLER_34_208
*1558 FILLER_34_21
*1559 FILLER_34_215
*1560 FILLER_34_222
*1561 FILLER_34_229
*1562 FILLER_34_236
*1563 FILLER_34_243
*1564 FILLER_34_250
*1565 FILLER_34_257
*1566 FILLER_34_264
*1567 FILLER_34_271
*1568 FILLER_34_278
*1569 FILLER_34_28
*1570 FILLER_34_285
*1571 FILLER_34_292
*1572 FILLER_34_299
*1573 FILLER_34_306
*1574 FILLER_34_313
*1575 FILLER_34_320
*1576 FILLER_34_327
*1577 FILLER_34_334
*1578 FILLER_34_341
*1579 FILLER_34_348
*1580 FILLER_34_355
*1581 FILLER_34_362
*1582 FILLER_34_4
*1583 FILLER_34_51
*1584 FILLER_34_66
*1585 FILLER_34_68
*1586 FILLER_34_73
*1587 FILLER_34_80
*1588 FILLER_34_86
*1589 FILLER_34_90
*1590 FILLER_34_95
*1591 FILLER_34_99
*1592 FILLER_35_103
*1593 FILLER_35_11
*1594 FILLER_35_110
*1595 FILLER_35_117
*1596 FILLER_35_124
*1597 FILLER_35_131
*1598 FILLER_35_138
*1599 FILLER_35_145
*1600 FILLER_35_152
*1601 FILLER_35_159
*1602 FILLER_35_166
*1603 FILLER_35_173
*1604 FILLER_35_18
*1605 FILLER_35_180
*1606 FILLER_35_187
*1607 FILLER_35_194
*1608 FILLER_35_201
*1609 FILLER_35_208
*1610 FILLER_35_215
*1611 FILLER_35_222
*1612 FILLER_35_229
*1613 FILLER_35_236
*1614 FILLER_35_243
*1615 FILLER_35_25
*1616 FILLER_35_250
*1617 FILLER_35_257
*1618 FILLER_35_264
*1619 FILLER_35_271
*1620 FILLER_35_278
*1621 FILLER_35_285
*1622 FILLER_35_292
*1623 FILLER_35_299
*1624 FILLER_35_306
*1625 FILLER_35_313
*1626 FILLER_35_32
*1627 FILLER_35_320
*1628 FILLER_35_327
*1629 FILLER_35_334
*1630 FILLER_35_341
*1631 FILLER_35_348
*1632 FILLER_35_355
*1633 FILLER_35_362
*1634 FILLER_35_39
*1635 FILLER_35_4
*1636 FILLER_35_41
*1637 FILLER_35_47
*1638 FILLER_35_49
*1639 FILLER_35_62
*1640 FILLER_35_68
*1641 FILLER_35_75
*1642 FILLER_35_82
*1643 FILLER_35_89
*1644 FILLER_35_96
*1645 FILLER_36_100
*1646 FILLER_36_107
*1647 FILLER_36_11
*1648 FILLER_36_114
*1649 FILLER_36_121
*1650 FILLER_36_128
*1651 FILLER_36_135
*1652 FILLER_36_142
*1653 FILLER_36_149
*1654 FILLER_36_156
*1655 FILLER_36_163
*1656 FILLER_36_170
*1657 FILLER_36_177
*1658 FILLER_36_18
*1659 FILLER_36_184
*1660 FILLER_36_191
*1661 FILLER_36_198
*1662 FILLER_36_205
*1663 FILLER_36_212
*1664 FILLER_36_219
*1665 FILLER_36_226
*1666 FILLER_36_233
*1667 FILLER_36_240
*1668 FILLER_36_247
*1669 FILLER_36_25
*1670 FILLER_36_254
*1671 FILLER_36_261
*1672 FILLER_36_268
*1673 FILLER_36_275
*1674 FILLER_36_282
*1675 FILLER_36_289
*1676 FILLER_36_296
*1677 FILLER_36_303
*1678 FILLER_36_310
*1679 FILLER_36_317
*1680 FILLER_36_32
*1681 FILLER_36_324
*1682 FILLER_36_331
*1683 FILLER_36_338
*1684 FILLER_36_345
*1685 FILLER_36_352
*1686 FILLER_36_359
*1687 FILLER_36_366
*1688 FILLER_36_368
*1689 FILLER_36_39
*1690 FILLER_36_4
*1691 FILLER_36_46
*1692 FILLER_36_51
*1693 FILLER_36_58
*1694 FILLER_36_65
*1695 FILLER_36_72
*1696 FILLER_36_79
*1697 FILLER_36_86
*1698 FILLER_36_93
*1699 FILLER_37_0
*1700 FILLER_37_105
*1701 FILLER_37_112
*1702 FILLER_37_119
*1703 FILLER_37_126
*1704 FILLER_37_133
*1705 FILLER_37_14
*1706 FILLER_37_140
*1707 FILLER_37_147
*1708 FILLER_37_154
*1709 FILLER_37_161
*1710 FILLER_37_168
*1711 FILLER_37_175
*1712 FILLER_37_182
*1713 FILLER_37_189
*1714 FILLER_37_196
*1715 FILLER_37_203
*1716 FILLER_37_21
*1717 FILLER_37_210
*1718 FILLER_37_217
*1719 FILLER_37_224
*1720 FILLER_37_231
*1721 FILLER_37_238
*1722 FILLER_37_245
*1723 FILLER_37_252
*1724 FILLER_37_259
*1725 FILLER_37_266
*1726 FILLER_37_273
*1727 FILLER_37_28
*1728 FILLER_37_280
*1729 FILLER_37_287
*1730 FILLER_37_294
*1731 FILLER_37_301
*1732 FILLER_37_308
*1733 FILLER_37_315
*1734 FILLER_37_322
*1735 FILLER_37_329
*1736 FILLER_37_336
*1737 FILLER_37_343
*1738 FILLER_37_35
*1739 FILLER_37_350
*1740 FILLER_37_361
*1741 FILLER_37_368
*1742 FILLER_37_42
*1743 FILLER_37_49
*1744 FILLER_37_56
*1745 FILLER_37_63
*1746 FILLER_37_7
*1747 FILLER_37_70
*1748 FILLER_37_77
*1749 FILLER_37_84
*1750 FILLER_37_91
*1751 FILLER_37_98
*1752 FILLER_38_102
*1753 FILLER_38_109
*1754 FILLER_38_11
*1755 FILLER_38_116
*1756 FILLER_38_123
*1757 FILLER_38_130
*1758 FILLER_38_137
*1759 FILLER_38_144
*1760 FILLER_38_151
*1761 FILLER_38_158
*1762 FILLER_38_165
*1763 FILLER_38_172
*1764 FILLER_38_179
*1765 FILLER_38_18
*1766 FILLER_38_186
*1767 FILLER_38_193
*1768 FILLER_38_200
*1769 FILLER_38_207
*1770 FILLER_38_214
*1771 FILLER_38_221
*1772 FILLER_38_228
*1773 FILLER_38_235
*1774 FILLER_38_242
*1775 FILLER_38_249
*1776 FILLER_38_25
*1777 FILLER_38_256
*1778 FILLER_38_263
*1779 FILLER_38_270
*1780 FILLER_38_277
*1781 FILLER_38_284
*1782 FILLER_38_291
*1783 FILLER_38_298
*1784 FILLER_38_305
*1785 FILLER_38_312
*1786 FILLER_38_319
*1787 FILLER_38_32
*1788 FILLER_38_326
*1789 FILLER_38_330
*1790 FILLER_38_39
*1791 FILLER_38_4
*1792 FILLER_38_46
*1793 FILLER_38_53
*1794 FILLER_38_60
*1795 FILLER_38_67
*1796 FILLER_38_74
*1797 FILLER_38_81
*1798 FILLER_38_88
*1799 FILLER_38_95
*1800 FILLER_39_102
*1801 FILLER_39_109
*1802 FILLER_39_11
*1803 FILLER_39_116
*1804 FILLER_39_123
*1805 FILLER_39_130
*1806 FILLER_39_137
*1807 FILLER_39_144
*1808 FILLER_39_151
*1809 FILLER_39_158
*1810 FILLER_39_165
*1811 FILLER_39_172
*1812 FILLER_39_179
*1813 FILLER_39_18
*1814 FILLER_39_186
*1815 FILLER_39_193
*1816 FILLER_39_200
*1817 FILLER_39_207
*1818 FILLER_39_214
*1819 FILLER_39_221
*1820 FILLER_39_228
*1821 FILLER_39_235
*1822 FILLER_39_242
*1823 FILLER_39_249
*1824 FILLER_39_25
*1825 FILLER_39_256
*1826 FILLER_39_263
*1827 FILLER_39_270
*1828 FILLER_39_277
*1829 FILLER_39_284
*1830 FILLER_39_291
*1831 FILLER_39_298
*1832 FILLER_39_305
*1833 FILLER_39_312
*1834 FILLER_39_319
*1835 FILLER_39_32
*1836 FILLER_39_326
*1837 FILLER_39_333
*1838 FILLER_39_337
*1839 FILLER_39_349
*1840 FILLER_39_365
*1841 FILLER_39_39
*1842 FILLER_39_4
*1843 FILLER_39_46
*1844 FILLER_39_53
*1845 FILLER_39_60
*1846 FILLER_39_67
*1847 FILLER_39_74
*1848 FILLER_39_81
*1849 FILLER_39_88
*1850 FILLER_39_95
*1851 FILLER_3_102
*1852 FILLER_3_109
*1853 FILLER_3_11
*1854 FILLER_3_116
*1855 FILLER_3_123
*1856 FILLER_3_130
*1857 FILLER_3_137
*1858 FILLER_3_144
*1859 FILLER_3_151
*1860 FILLER_3_158
*1861 FILLER_3_165
*1862 FILLER_3_172
*1863 FILLER_3_179
*1864 FILLER_3_18
*1865 FILLER_3_186
*1866 FILLER_3_193
*1867 FILLER_3_200
*1868 FILLER_3_207
*1869 FILLER_3_214
*1870 FILLER_3_221
*1871 FILLER_3_228
*1872 FILLER_3_235
*1873 FILLER_3_242
*1874 FILLER_3_249
*1875 FILLER_3_25
*1876 FILLER_3_256
*1877 FILLER_3_263
*1878 FILLER_3_270
*1879 FILLER_3_277
*1880 FILLER_3_284
*1881 FILLER_3_291
*1882 FILLER_3_298
*1883 FILLER_3_305
*1884 FILLER_3_312
*1885 FILLER_3_319
*1886 FILLER_3_32
*1887 FILLER_3_326
*1888 FILLER_3_333
*1889 FILLER_3_340
*1890 FILLER_3_347
*1891 FILLER_3_354
*1892 FILLER_3_361
*1893 FILLER_3_368
*1894 FILLER_3_39
*1895 FILLER_3_4
*1896 FILLER_3_46
*1897 FILLER_3_53
*1898 FILLER_3_60
*1899 FILLER_3_67
*1900 FILLER_3_74
*1901 FILLER_3_81
*1902 FILLER_3_88
*1903 FILLER_3_95
*1904 FILLER_40_102
*1905 FILLER_40_109
*1906 FILLER_40_11
*1907 FILLER_40_116
*1908 FILLER_40_123
*1909 FILLER_40_130
*1910 FILLER_40_137
*1911 FILLER_40_144
*1912 FILLER_40_151
*1913 FILLER_40_158
*1914 FILLER_40_165
*1915 FILLER_40_172
*1916 FILLER_40_179
*1917 FILLER_40_18
*1918 FILLER_40_186
*1919 FILLER_40_193
*1920 FILLER_40_200
*1921 FILLER_40_207
*1922 FILLER_40_214
*1923 FILLER_40_221
*1924 FILLER_40_228
*1925 FILLER_40_235
*1926 FILLER_40_242
*1927 FILLER_40_249
*1928 FILLER_40_25
*1929 FILLER_40_256
*1930 FILLER_40_263
*1931 FILLER_40_270
*1932 FILLER_40_277
*1933 FILLER_40_284
*1934 FILLER_40_291
*1935 FILLER_40_298
*1936 FILLER_40_305
*1937 FILLER_40_312
*1938 FILLER_40_319
*1939 FILLER_40_32
*1940 FILLER_40_326
*1941 FILLER_40_333
*1942 FILLER_40_340
*1943 FILLER_40_39
*1944 FILLER_40_4
*1945 FILLER_40_46
*1946 FILLER_40_53
*1947 FILLER_40_60
*1948 FILLER_40_67
*1949 FILLER_40_74
*1950 FILLER_40_81
*1951 FILLER_40_88
*1952 FILLER_40_95
*1953 FILLER_41_0
*1954 FILLER_41_105
*1955 FILLER_41_112
*1956 FILLER_41_119
*1957 FILLER_41_126
*1958 FILLER_41_133
*1959 FILLER_41_14
*1960 FILLER_41_140
*1961 FILLER_41_147
*1962 FILLER_41_154
*1963 FILLER_41_161
*1964 FILLER_41_168
*1965 FILLER_41_175
*1966 FILLER_41_182
*1967 FILLER_41_189
*1968 FILLER_41_196
*1969 FILLER_41_203
*1970 FILLER_41_21
*1971 FILLER_41_210
*1972 FILLER_41_217
*1973 FILLER_41_224
*1974 FILLER_41_231
*1975 FILLER_41_238
*1976 FILLER_41_245
*1977 FILLER_41_252
*1978 FILLER_41_259
*1979 FILLER_41_266
*1980 FILLER_41_273
*1981 FILLER_41_28
*1982 FILLER_41_280
*1983 FILLER_41_287
*1984 FILLER_41_294
*1985 FILLER_41_301
*1986 FILLER_41_308
*1987 FILLER_41_315
*1988 FILLER_41_322
*1989 FILLER_41_329
*1990 FILLER_41_336
*1991 FILLER_41_35
*1992 FILLER_41_350
*1993 FILLER_41_354
*1994 FILLER_41_365
*1995 FILLER_41_42
*1996 FILLER_41_49
*1997 FILLER_41_56
*1998 FILLER_41_63
*1999 FILLER_41_7
*2000 FILLER_41_70
*2001 FILLER_41_77
*2002 FILLER_41_84
*2003 FILLER_41_91
*2004 FILLER_41_98
*2005 FILLER_42_0
*2006 FILLER_42_105
*2007 FILLER_42_112
*2008 FILLER_42_119
*2009 FILLER_42_126
*2010 FILLER_42_133
*2011 FILLER_42_14
*2012 FILLER_42_140
*2013 FILLER_42_147
*2014 FILLER_42_154
*2015 FILLER_42_161
*2016 FILLER_42_168
*2017 FILLER_42_175
*2018 FILLER_42_182
*2019 FILLER_42_189
*2020 FILLER_42_196
*2021 FILLER_42_203
*2022 FILLER_42_21
*2023 FILLER_42_210
*2024 FILLER_42_217
*2025 FILLER_42_224
*2026 FILLER_42_231
*2027 FILLER_42_238
*2028 FILLER_42_245
*2029 FILLER_42_252
*2030 FILLER_42_259
*2031 FILLER_42_266
*2032 FILLER_42_273
*2033 FILLER_42_28
*2034 FILLER_42_280
*2035 FILLER_42_287
*2036 FILLER_42_294
*2037 FILLER_42_301
*2038 FILLER_42_308
*2039 FILLER_42_315
*2040 FILLER_42_322
*2041 FILLER_42_329
*2042 FILLER_42_336
*2043 FILLER_42_340
*2044 FILLER_42_35
*2045 FILLER_42_42
*2046 FILLER_42_49
*2047 FILLER_42_56
*2048 FILLER_42_63
*2049 FILLER_42_7
*2050 FILLER_42_70
*2051 FILLER_42_77
*2052 FILLER_42_84
*2053 FILLER_42_91
*2054 FILLER_42_98
*2055 FILLER_43_102
*2056 FILLER_43_109
*2057 FILLER_43_11
*2058 FILLER_43_116
*2059 FILLER_43_123
*2060 FILLER_43_130
*2061 FILLER_43_137
*2062 FILLER_43_144
*2063 FILLER_43_151
*2064 FILLER_43_158
*2065 FILLER_43_165
*2066 FILLER_43_172
*2067 FILLER_43_179
*2068 FILLER_43_18
*2069 FILLER_43_186
*2070 FILLER_43_193
*2071 FILLER_43_200
*2072 FILLER_43_207
*2073 FILLER_43_214
*2074 FILLER_43_221
*2075 FILLER_43_228
*2076 FILLER_43_235
*2077 FILLER_43_242
*2078 FILLER_43_249
*2079 FILLER_43_25
*2080 FILLER_43_256
*2081 FILLER_43_263
*2082 FILLER_43_270
*2083 FILLER_43_277
*2084 FILLER_43_284
*2085 FILLER_43_291
*2086 FILLER_43_298
*2087 FILLER_43_305
*2088 FILLER_43_312
*2089 FILLER_43_319
*2090 FILLER_43_32
*2091 FILLER_43_326
*2092 FILLER_43_333
*2093 FILLER_43_350
*2094 FILLER_43_355
*2095 FILLER_43_365
*2096 FILLER_43_39
*2097 FILLER_43_4
*2098 FILLER_43_46
*2099 FILLER_43_53
*2100 FILLER_43_60
*2101 FILLER_43_67
*2102 FILLER_43_74
*2103 FILLER_43_81
*2104 FILLER_43_88
*2105 FILLER_43_95
*2106 FILLER_44_102
*2107 FILLER_44_109
*2108 FILLER_44_11
*2109 FILLER_44_116
*2110 FILLER_44_123
*2111 FILLER_44_130
*2112 FILLER_44_137
*2113 FILLER_44_144
*2114 FILLER_44_151
*2115 FILLER_44_158
*2116 FILLER_44_165
*2117 FILLER_44_172
*2118 FILLER_44_179
*2119 FILLER_44_18
*2120 FILLER_44_186
*2121 FILLER_44_193
*2122 FILLER_44_200
*2123 FILLER_44_207
*2124 FILLER_44_214
*2125 FILLER_44_221
*2126 FILLER_44_228
*2127 FILLER_44_235
*2128 FILLER_44_242
*2129 FILLER_44_249
*2130 FILLER_44_25
*2131 FILLER_44_256
*2132 FILLER_44_263
*2133 FILLER_44_270
*2134 FILLER_44_277
*2135 FILLER_44_284
*2136 FILLER_44_291
*2137 FILLER_44_298
*2138 FILLER_44_305
*2139 FILLER_44_312
*2140 FILLER_44_319
*2141 FILLER_44_32
*2142 FILLER_44_326
*2143 FILLER_44_333
*2144 FILLER_44_340
*2145 FILLER_44_39
*2146 FILLER_44_4
*2147 FILLER_44_46
*2148 FILLER_44_53
*2149 FILLER_44_60
*2150 FILLER_44_67
*2151 FILLER_44_74
*2152 FILLER_44_81
*2153 FILLER_44_88
*2154 FILLER_44_95
*2155 FILLER_45_102
*2156 FILLER_45_109
*2157 FILLER_45_11
*2158 FILLER_45_116
*2159 FILLER_45_123
*2160 FILLER_45_130
*2161 FILLER_45_137
*2162 FILLER_45_144
*2163 FILLER_45_151
*2164 FILLER_45_158
*2165 FILLER_45_165
*2166 FILLER_45_172
*2167 FILLER_45_179
*2168 FILLER_45_18
*2169 FILLER_45_186
*2170 FILLER_45_193
*2171 FILLER_45_200
*2172 FILLER_45_207
*2173 FILLER_45_214
*2174 FILLER_45_221
*2175 FILLER_45_228
*2176 FILLER_45_235
*2177 FILLER_45_242
*2178 FILLER_45_249
*2179 FILLER_45_25
*2180 FILLER_45_256
*2181 FILLER_45_263
*2182 FILLER_45_270
*2183 FILLER_45_277
*2184 FILLER_45_284
*2185 FILLER_45_291
*2186 FILLER_45_298
*2187 FILLER_45_305
*2188 FILLER_45_312
*2189 FILLER_45_319
*2190 FILLER_45_32
*2191 FILLER_45_326
*2192 FILLER_45_333
*2193 FILLER_45_340
*2194 FILLER_45_347
*2195 FILLER_45_354
*2196 FILLER_45_361
*2197 FILLER_45_368
*2198 FILLER_45_39
*2199 FILLER_45_4
*2200 FILLER_45_46
*2201 FILLER_45_53
*2202 FILLER_45_60
*2203 FILLER_45_67
*2204 FILLER_45_74
*2205 FILLER_45_81
*2206 FILLER_45_88
*2207 FILLER_45_95
*2208 FILLER_46_0
*2209 FILLER_46_105
*2210 FILLER_46_112
*2211 FILLER_46_119
*2212 FILLER_46_126
*2213 FILLER_46_133
*2214 FILLER_46_14
*2215 FILLER_46_140
*2216 FILLER_46_147
*2217 FILLER_46_154
*2218 FILLER_46_161
*2219 FILLER_46_168
*2220 FILLER_46_175
*2221 FILLER_46_182
*2222 FILLER_46_189
*2223 FILLER_46_196
*2224 FILLER_46_203
*2225 FILLER_46_21
*2226 FILLER_46_210
*2227 FILLER_46_217
*2228 FILLER_46_224
*2229 FILLER_46_231
*2230 FILLER_46_238
*2231 FILLER_46_245
*2232 FILLER_46_252
*2233 FILLER_46_259
*2234 FILLER_46_266
*2235 FILLER_46_273
*2236 FILLER_46_28
*2237 FILLER_46_280
*2238 FILLER_46_287
*2239 FILLER_46_294
*2240 FILLER_46_301
*2241 FILLER_46_308
*2242 FILLER_46_315
*2243 FILLER_46_322
*2244 FILLER_46_329
*2245 FILLER_46_336
*2246 FILLER_46_343
*2247 FILLER_46_35
*2248 FILLER_46_350
*2249 FILLER_46_357
*2250 FILLER_46_364
*2251 FILLER_46_368
*2252 FILLER_46_42
*2253 FILLER_46_49
*2254 FILLER_46_56
*2255 FILLER_46_63
*2256 FILLER_46_7
*2257 FILLER_46_70
*2258 FILLER_46_77
*2259 FILLER_46_84
*2260 FILLER_46_91
*2261 FILLER_46_98
*2262 FILLER_47_0
*2263 FILLER_47_105
*2264 FILLER_47_112
*2265 FILLER_47_119
*2266 FILLER_47_126
*2267 FILLER_47_133
*2268 FILLER_47_14
*2269 FILLER_47_140
*2270 FILLER_47_147
*2271 FILLER_47_154
*2272 FILLER_47_161
*2273 FILLER_47_168
*2274 FILLER_47_175
*2275 FILLER_47_182
*2276 FILLER_47_189
*2277 FILLER_47_196
*2278 FILLER_47_203
*2279 FILLER_47_21
*2280 FILLER_47_210
*2281 FILLER_47_217
*2282 FILLER_47_224
*2283 FILLER_47_231
*2284 FILLER_47_238
*2285 FILLER_47_245
*2286 FILLER_47_252
*2287 FILLER_47_259
*2288 FILLER_47_266
*2289 FILLER_47_273
*2290 FILLER_47_28
*2291 FILLER_47_280
*2292 FILLER_47_287
*2293 FILLER_47_294
*2294 FILLER_47_301
*2295 FILLER_47_308
*2296 FILLER_47_315
*2297 FILLER_47_322
*2298 FILLER_47_329
*2299 FILLER_47_336
*2300 FILLER_47_343
*2301 FILLER_47_35
*2302 FILLER_47_350
*2303 FILLER_47_357
*2304 FILLER_47_364
*2305 FILLER_47_368
*2306 FILLER_47_42
*2307 FILLER_47_49
*2308 FILLER_47_56
*2309 FILLER_47_63
*2310 FILLER_47_7
*2311 FILLER_47_70
*2312 FILLER_47_77
*2313 FILLER_47_84
*2314 FILLER_47_91
*2315 FILLER_47_98
*2316 FILLER_48_0
*2317 FILLER_48_105
*2318 FILLER_48_112
*2319 FILLER_48_119
*2320 FILLER_48_126
*2321 FILLER_48_133
*2322 FILLER_48_14
*2323 FILLER_48_140
*2324 FILLER_48_147
*2325 FILLER_48_154
*2326 FILLER_48_161
*2327 FILLER_48_168
*2328 FILLER_48_175
*2329 FILLER_48_182
*2330 FILLER_48_189
*2331 FILLER_48_196
*2332 FILLER_48_203
*2333 FILLER_48_21
*2334 FILLER_48_210
*2335 FILLER_48_217
*2336 FILLER_48_224
*2337 FILLER_48_231
*2338 FILLER_48_238
*2339 FILLER_48_245
*2340 FILLER_48_252
*2341 FILLER_48_259
*2342 FILLER_48_266
*2343 FILLER_48_273
*2344 FILLER_48_28
*2345 FILLER_48_280
*2346 FILLER_48_287
*2347 FILLER_48_294
*2348 FILLER_48_301
*2349 FILLER_48_308
*2350 FILLER_48_315
*2351 FILLER_48_322
*2352 FILLER_48_329
*2353 FILLER_48_336
*2354 FILLER_48_343
*2355 FILLER_48_35
*2356 FILLER_48_350
*2357 FILLER_48_357
*2358 FILLER_48_364
*2359 FILLER_48_368
*2360 FILLER_48_42
*2361 FILLER_48_49
*2362 FILLER_48_56
*2363 FILLER_48_63
*2364 FILLER_48_7
*2365 FILLER_48_70
*2366 FILLER_48_77
*2367 FILLER_48_84
*2368 FILLER_48_91
*2369 FILLER_48_98
*2370 FILLER_49_102
*2371 FILLER_49_109
*2372 FILLER_49_11
*2373 FILLER_49_116
*2374 FILLER_49_123
*2375 FILLER_49_130
*2376 FILLER_49_137
*2377 FILLER_49_144
*2378 FILLER_49_151
*2379 FILLER_49_158
*2380 FILLER_49_165
*2381 FILLER_49_172
*2382 FILLER_49_179
*2383 FILLER_49_18
*2384 FILLER_49_186
*2385 FILLER_49_193
*2386 FILLER_49_200
*2387 FILLER_49_207
*2388 FILLER_49_214
*2389 FILLER_49_221
*2390 FILLER_49_228
*2391 FILLER_49_235
*2392 FILLER_49_242
*2393 FILLER_49_249
*2394 FILLER_49_25
*2395 FILLER_49_256
*2396 FILLER_49_263
*2397 FILLER_49_270
*2398 FILLER_49_277
*2399 FILLER_49_284
*2400 FILLER_49_291
*2401 FILLER_49_298
*2402 FILLER_49_305
*2403 FILLER_49_312
*2404 FILLER_49_319
*2405 FILLER_49_32
*2406 FILLER_49_326
*2407 FILLER_49_333
*2408 FILLER_49_340
*2409 FILLER_49_347
*2410 FILLER_49_354
*2411 FILLER_49_361
*2412 FILLER_49_368
*2413 FILLER_49_39
*2414 FILLER_49_4
*2415 FILLER_49_46
*2416 FILLER_49_53
*2417 FILLER_49_60
*2418 FILLER_49_67
*2419 FILLER_49_74
*2420 FILLER_49_81
*2421 FILLER_49_88
*2422 FILLER_49_95
*2423 FILLER_4_102
*2424 FILLER_4_109
*2425 FILLER_4_11
*2426 FILLER_4_116
*2427 FILLER_4_123
*2428 FILLER_4_130
*2429 FILLER_4_137
*2430 FILLER_4_144
*2431 FILLER_4_151
*2432 FILLER_4_158
*2433 FILLER_4_165
*2434 FILLER_4_172
*2435 FILLER_4_179
*2436 FILLER_4_18
*2437 FILLER_4_186
*2438 FILLER_4_193
*2439 FILLER_4_200
*2440 FILLER_4_207
*2441 FILLER_4_214
*2442 FILLER_4_221
*2443 FILLER_4_228
*2444 FILLER_4_235
*2445 FILLER_4_242
*2446 FILLER_4_249
*2447 FILLER_4_25
*2448 FILLER_4_256
*2449 FILLER_4_263
*2450 FILLER_4_270
*2451 FILLER_4_277
*2452 FILLER_4_284
*2453 FILLER_4_291
*2454 FILLER_4_298
*2455 FILLER_4_305
*2456 FILLER_4_312
*2457 FILLER_4_319
*2458 FILLER_4_32
*2459 FILLER_4_326
*2460 FILLER_4_333
*2461 FILLER_4_340
*2462 FILLER_4_347
*2463 FILLER_4_354
*2464 FILLER_4_361
*2465 FILLER_4_368
*2466 FILLER_4_39
*2467 FILLER_4_4
*2468 FILLER_4_46
*2469 FILLER_4_53
*2470 FILLER_4_60
*2471 FILLER_4_67
*2472 FILLER_4_74
*2473 FILLER_4_81
*2474 FILLER_4_88
*2475 FILLER_4_95
*2476 FILLER_5_102
*2477 FILLER_5_109
*2478 FILLER_5_11
*2479 FILLER_5_116
*2480 FILLER_5_123
*2481 FILLER_5_130
*2482 FILLER_5_137
*2483 FILLER_5_144
*2484 FILLER_5_151
*2485 FILLER_5_158
*2486 FILLER_5_165
*2487 FILLER_5_172
*2488 FILLER_5_179
*2489 FILLER_5_18
*2490 FILLER_5_186
*2491 FILLER_5_193
*2492 FILLER_5_200
*2493 FILLER_5_207
*2494 FILLER_5_214
*2495 FILLER_5_221
*2496 FILLER_5_228
*2497 FILLER_5_235
*2498 FILLER_5_242
*2499 FILLER_5_249
*2500 FILLER_5_25
*2501 FILLER_5_256
*2502 FILLER_5_263
*2503 FILLER_5_270
*2504 FILLER_5_277
*2505 FILLER_5_284
*2506 FILLER_5_291
*2507 FILLER_5_298
*2508 FILLER_5_305
*2509 FILLER_5_312
*2510 FILLER_5_319
*2511 FILLER_5_32
*2512 FILLER_5_326
*2513 FILLER_5_333
*2514 FILLER_5_340
*2515 FILLER_5_347
*2516 FILLER_5_354
*2517 FILLER_5_361
*2518 FILLER_5_368
*2519 FILLER_5_39
*2520 FILLER_5_4
*2521 FILLER_5_46
*2522 FILLER_5_53
*2523 FILLER_5_60
*2524 FILLER_5_67
*2525 FILLER_5_74
*2526 FILLER_5_81
*2527 FILLER_5_88
*2528 FILLER_5_95
*2529 FILLER_6_102
*2530 FILLER_6_109
*2531 FILLER_6_11
*2532 FILLER_6_116
*2533 FILLER_6_123
*2534 FILLER_6_130
*2535 FILLER_6_137
*2536 FILLER_6_144
*2537 FILLER_6_151
*2538 FILLER_6_158
*2539 FILLER_6_165
*2540 FILLER_6_172
*2541 FILLER_6_179
*2542 FILLER_6_18
*2543 FILLER_6_186
*2544 FILLER_6_193
*2545 FILLER_6_200
*2546 FILLER_6_207
*2547 FILLER_6_214
*2548 FILLER_6_221
*2549 FILLER_6_228
*2550 FILLER_6_235
*2551 FILLER_6_242
*2552 FILLER_6_249
*2553 FILLER_6_25
*2554 FILLER_6_256
*2555 FILLER_6_263
*2556 FILLER_6_270
*2557 FILLER_6_277
*2558 FILLER_6_284
*2559 FILLER_6_291
*2560 FILLER_6_298
*2561 FILLER_6_305
*2562 FILLER_6_312
*2563 FILLER_6_319
*2564 FILLER_6_32
*2565 FILLER_6_326
*2566 FILLER_6_333
*2567 FILLER_6_340
*2568 FILLER_6_347
*2569 FILLER_6_354
*2570 FILLER_6_361
*2571 FILLER_6_368
*2572 FILLER_6_39
*2573 FILLER_6_4
*2574 FILLER_6_46
*2575 FILLER_6_53
*2576 FILLER_6_60
*2577 FILLER_6_67
*2578 FILLER_6_74
*2579 FILLER_6_81
*2580 FILLER_6_88
*2581 FILLER_6_95
*2582 FILLER_7_0
*2583 FILLER_7_105
*2584 FILLER_7_112
*2585 FILLER_7_119
*2586 FILLER_7_126
*2587 FILLER_7_133
*2588 FILLER_7_14
*2589 FILLER_7_140
*2590 FILLER_7_147
*2591 FILLER_7_154
*2592 FILLER_7_161
*2593 FILLER_7_168
*2594 FILLER_7_175
*2595 FILLER_7_182
*2596 FILLER_7_189
*2597 FILLER_7_196
*2598 FILLER_7_203
*2599 FILLER_7_21
*2600 FILLER_7_210
*2601 FILLER_7_217
*2602 FILLER_7_224
*2603 FILLER_7_231
*2604 FILLER_7_238
*2605 FILLER_7_245
*2606 FILLER_7_252
*2607 FILLER_7_259
*2608 FILLER_7_266
*2609 FILLER_7_273
*2610 FILLER_7_28
*2611 FILLER_7_280
*2612 FILLER_7_287
*2613 FILLER_7_294
*2614 FILLER_7_301
*2615 FILLER_7_308
*2616 FILLER_7_315
*2617 FILLER_7_322
*2618 FILLER_7_329
*2619 FILLER_7_336
*2620 FILLER_7_343
*2621 FILLER_7_35
*2622 FILLER_7_350
*2623 FILLER_7_357
*2624 FILLER_7_364
*2625 FILLER_7_368
*2626 FILLER_7_42
*2627 FILLER_7_49
*2628 FILLER_7_56
*2629 FILLER_7_63
*2630 FILLER_7_7
*2631 FILLER_7_70
*2632 FILLER_7_77
*2633 FILLER_7_84
*2634 FILLER_7_91
*2635 FILLER_7_98
*2636 FILLER_8_102
*2637 FILLER_8_109
*2638 FILLER_8_11
*2639 FILLER_8_116
*2640 FILLER_8_123
*2641 FILLER_8_130
*2642 FILLER_8_137
*2643 FILLER_8_144
*2644 FILLER_8_151
*2645 FILLER_8_158
*2646 FILLER_8_165
*2647 FILLER_8_172
*2648 FILLER_8_179
*2649 FILLER_8_18
*2650 FILLER_8_186
*2651 FILLER_8_193
*2652 FILLER_8_200
*2653 FILLER_8_207
*2654 FILLER_8_214
*2655 FILLER_8_221
*2656 FILLER_8_228
*2657 FILLER_8_235
*2658 FILLER_8_242
*2659 FILLER_8_249
*2660 FILLER_8_25
*2661 FILLER_8_256
*2662 FILLER_8_263
*2663 FILLER_8_270
*2664 FILLER_8_277
*2665 FILLER_8_284
*2666 FILLER_8_291
*2667 FILLER_8_298
*2668 FILLER_8_305
*2669 FILLER_8_312
*2670 FILLER_8_319
*2671 FILLER_8_32
*2672 FILLER_8_326
*2673 FILLER_8_333
*2674 FILLER_8_340
*2675 FILLER_8_347
*2676 FILLER_8_354
*2677 FILLER_8_361
*2678 FILLER_8_368
*2679 FILLER_8_39
*2680 FILLER_8_4
*2681 FILLER_8_46
*2682 FILLER_8_53
*2683 FILLER_8_60
*2684 FILLER_8_67
*2685 FILLER_8_74
*2686 FILLER_8_81
*2687 FILLER_8_88
*2688 FILLER_8_95
*2689 FILLER_9_102
*2690 FILLER_9_109
*2691 FILLER_9_11
*2692 FILLER_9_116
*2693 FILLER_9_123
*2694 FILLER_9_130
*2695 FILLER_9_137
*2696 FILLER_9_144
*2697 FILLER_9_151
*2698 FILLER_9_158
*2699 FILLER_9_165
*2700 FILLER_9_172
*2701 FILLER_9_179
*2702 FILLER_9_18
*2703 FILLER_9_186
*2704 FILLER_9_193
*2705 FILLER_9_200
*2706 FILLER_9_207
*2707 FILLER_9_214
*2708 FILLER_9_221
*2709 FILLER_9_228
*2710 FILLER_9_235
*2711 FILLER_9_242
*2712 FILLER_9_249
*2713 FILLER_9_25
*2714 FILLER_9_256
*2715 FILLER_9_263
*2716 FILLER_9_270
*2717 FILLER_9_277
*2718 FILLER_9_284
*2719 FILLER_9_291
*2720 FILLER_9_298
*2721 FILLER_9_305
*2722 FILLER_9_312
*2723 FILLER_9_319
*2724 FILLER_9_32
*2725 FILLER_9_326
*2726 FILLER_9_333
*2727 FILLER_9_340
*2728 FILLER_9_347
*2729 FILLER_9_354
*2730 FILLER_9_365
*2731 FILLER_9_39
*2732 FILLER_9_4
*2733 FILLER_9_46
*2734 FILLER_9_53
*2735 FILLER_9_60
*2736 FILLER_9_67
*2737 FILLER_9_74
*2738 FILLER_9_81
*2739 FILLER_9_88
*2740 FILLER_9_95
*2741 _092_
*2742 _093_
*2743 _094_
*2744 _095_
*2745 _096_
*2746 _097_
*2747 _098_
*2748 _099_
*2749 _100_
*2750 _101_
*2751 _102_
*2752 _103_
*2753 _104_
*2754 _105_
*2755 _106_
*2756 _107_
*2757 _108_
*2758 _109_
*2759 _110_
*2760 _111_
*2761 _112_
*2762 _113_
*2763 _114_
*2764 _115_
*2765 _116_
*2766 _117_
*2767 _118_
*2768 _119_
*2769 _120_
*2770 _121_
*2771 _122_
*2772 _123_
*2773 _124_
*2774 _125_
*2775 _126_
*2776 _127_
*2777 _128_
*2778 _129_
*2779 _130_
*2780 _131_
*2781 _132_
*2782 _133_
*2783 _134_
*2784 _135_
*2785 _136_
*2786 _137_
*2787 _138_
*2788 _139_
*2789 _140_
*2790 _141_
*2791 _142_
*2792 _143_
*2793 _144_
*2794 _145_
*2795 _146_
*2796 _147_
*2797 _148_
*2798 _149_
*2799 _150_
*2800 _151_
*2801 _152_
*2802 _153_
*2803 _154_
*2804 _155_
*2805 _156_
*2806 _157_
*2807 _158_
*2808 _159_
*2809 _160_
*2810 _161_
*2811 _162_
*2812 _163_
*2813 _164_
*2814 _165_
*2815 _166_
*2816 _167_
*2817 _168_
*2818 _169_
*2819 _170_
*2820 _171_
*2821 _172_
*2822 _173_
*2823 _174_
*2824 _175_
*2825 _176_
*2826 _177_
*2827 _178_
*2828 _179_
*2829 _180_
*2830 _181_
*2831 _182_
*2832 _183_
*2833 _184_
*2834 _185_
*2835 _186_
*2836 _187_
*2837 _188_
*2838 _189_
*2839 _190_
*2840 _191_
*2841 _192_
*2842 _193_
*2843 _194_
*2844 _195_
*2845 _196_
*2846 _197_
*2847 _198_
*2848 _199_
*2849 _200_
*2850 _201_
*2851 _202_
*2852 _203_
*2853 _204_
*2854 _205_
*2855 _206_
*2856 _207_
*2857 _208_
*2858 _209_
*2859 _210_
*2860 _211_
*2861 _212_
*2862 _213_
*2863 _214_
*2864 _215_
*2865 _216_
*2866 _217_
*2867 _218_
*2868 _219_
*2869 _220_
*2870 _221_
*2871 _222_
*2872 _223_
*2873 _224_
*2874 _225_
*2875 _226_
*2876 _227_
*2877 _228_
*2878 _229_
*2879 _230_
*2880 _231_
*2881 _232_
*2882 _233_
*2883 _234_
*2884 _235_
*2885 _236_
*2886 _237_
*2887 _238_
*2888 _239_
*2889 _240_
*2890 _241_
*2891 _242_
*2892 _243_
*2893 _244_
*2894 _245_
*2895 _246_
*2896 _247_
*2897 _248_
*2898 _249_
*2899 _250_
*2900 _251_
*2901 _252_
*2902 _253_
*2903 _254_
*2904 _255_
*2905 _256_
*2906 _271_
*2907 _272_
*2908 analogue_interface_instance
*2909 clkbuf_0_clk
*2910 clkbuf_3_0__f_clk
*2911 clkbuf_3_1__f_clk
*2912 clkbuf_3_2__f_clk
*2913 clkbuf_3_3__f_clk
*2914 clkbuf_3_4__f_clk
*2915 clkbuf_3_5__f_clk
*2916 clkbuf_3_6__f_clk
*2917 clkbuf_3_7__f_clk
*2918 clkload0
*2919 fanout26
*2920 fanout27
*2921 fanout28
*2922 fanout29
*2923 fanout30
*2924 fanout31
*2925 fanout32
*2926 fanout33
*2927 fanout34
*2928 fanout35
*2929 fanout36
*2930 fanout37
*2931 fanout38
*2932 fanout39
*2933 fanout40
*2934 fanout41
*2935 fanout42
*2936 heichips26_FAIf
*2937 heichips26_FAIf_43
*2938 heichips26_FAIf_44
*2939 heichips26_FAIf_45
*2940 heichips26_FAIf_46
*2941 heichips26_FAIf_47
*2942 heichips26_FAIf_48
*2943 heichips26_FAIf_49
*2944 heichips26_FAIf_50
*2945 heichips26_FAIf_51
*2946 heichips26_FAIf_52
*2947 heichips26_FAIf_53
*2948 heichips26_FAIf_54
*2949 heichips26_FAIf_55
*2950 hold100
*2951 hold101
*2952 hold102
*2953 hold103
*2954 hold104
*2955 hold105
*2956 hold106
*2957 hold107
*2958 hold108
*2959 hold109
*2960 hold110
*2961 hold111
*2962 hold112
*2963 hold113
*2964 hold114
*2965 hold115
*2966 hold116
*2967 hold117
*2968 hold118
*2969 hold119
*2970 hold120
*2971 hold121
*2972 hold122
*2973 hold123
*2974 hold124
*2975 hold125
*2976 hold126
*2977 hold127
*2978 hold128
*2979 hold129
*2980 hold130
*2981 hold131
*2982 hold132
*2983 hold56
*2984 hold57
*2985 hold58
*2986 hold59
*2987 hold60
*2988 hold61
*2989 hold62
*2990 hold63
*2991 hold64
*2992 hold65
*2993 hold66
*2994 hold67
*2995 hold68
*2996 hold69
*2997 hold70
*2998 hold71
*2999 hold72
*3000 hold73
*3001 hold74
*3002 hold75
*3003 hold76
*3004 hold77
*3005 hold78
*3006 hold79
*3007 hold80
*3008 hold81
*3009 hold82
*3010 hold83
*3011 hold84
*3012 hold85
*3013 hold86
*3014 hold87
*3015 hold88
*3016 hold89
*3017 hold90
*3018 hold91
*3019 hold92
*3020 hold93
*3021 hold94
*3022 hold95
*3023 hold96
*3024 hold97
*3025 hold98
*3026 hold99
*3027 input1
*3028 input10
*3029 input11
*3030 input12
*3031 input13
*3032 input14
*3033 input15
*3034 input2
*3035 input3
*3036 input4
*3037 input5
*3038 input6
*3039 input7
*3040 input8
*3041 input9
*3042 output16
*3043 output17
*3044 output18
*3045 output19
*3046 output20
*3047 output21
*3048 output22
*3049 output23
*3050 output24
*3051 output25

*PORTS
analog_0 I
analog_1 I
analog_2 I
clk I
ena I
rst_n I
ui_in[0] I
ui_in[1] I
ui_in[2] I
ui_in[3] I
ui_in[4] I
ui_in[5] I
ui_in[6] I
ui_in[7] I
uio_in[0] I
uio_in[1] I
uio_in[2] I
uio_in[3] I
uio_in[4] I
uio_in[5] I
uio_in[6] I
uio_in[7] I
uio_oe[0] O
uio_oe[1] O
uio_oe[2] O
uio_oe[3] O
uio_oe[4] O
uio_oe[5] O
uio_oe[6] O
uio_oe[7] O
uio_out[0] O
uio_out[1] O
uio_out[2] O
uio_out[3] O
uio_out[4] O
uio_out[5] O
uio_out[6] O
uio_out[7] O
uo_out[0] O
uo_out[1] O
uo_out[2] O
uo_out[3] O
uo_out[4] O
uo_out[5] O
uo_out[6] O
uo_out[7] O

*D_NET *4 0.000754036
*CONN
*P analog_0 I
*I *2908:analog_0 I *D analogue_interface
*CAP
1 analog_0 0.000377018
2 *2908:analog_0 0.000377018
3 *2908:analog_0 *2908:analog_1 0
*RES
1 analog_0 *2908:analog_0 4.326 
*END

*D_NET *5 0.000754036
*CONN
*P analog_1 I
*I *2908:analog_1 I *D analogue_interface
*CAP
1 analog_1 0.000377018
2 *2908:analog_1 0.000377018
3 *2908:analog_1 *2908:analog_2 0
4 *2908:analog_0 *2908:analog_1 0
*RES
1 analog_1 *2908:analog_1 4.326 
*END

*D_NET *6 0.000754036
*CONN
*P analog_2 I
*I *2908:analog_2 I *D analogue_interface
*CAP
1 analog_2 0.000377018
2 *2908:analog_2 0.000377018
3 *2908:analog_1 *2908:analog_2 0
*RES
1 analog_2 *2908:analog_2 4.326 
*END

*D_NET *7 0.0143128
*CONN
*P clk I
*I *2909:A I *D sg13cmos5l_buf_8
*CAP
1 clk 0.00373641
2 *2909:A 0.000120861
3 *7:10 0.00341999
4 *7:8 0.00329913
5 *7:6 0.00373641
6 *2909:A *157:95 0
7 *7:6 *3027:A 0
*RES
1 clk *7:6 47.6581 
2 *7:6 *7:8 20 
3 *7:8 *7:10 36.2457 
4 *7:10 *2909:A 21.1639 
*END

*D_NET *9 0.000566225
*CONN
*P rst_n I
*I *3027:A I *D sg13cmos5l_buf_1
*CAP
1 rst_n 0.000283113
2 *3027:A 0.000283113
3 *7:6 *3027:A 0
*RES
1 rst_n *3027:A 43.296 
*END

*D_NET *10 0.000863889
*CONN
*P ui_in[0] I
*I *3034:A I *D sg13cmos5l_buf_1
*CAP
1 ui_in[0] 0.000307565
2 *3034:A 0.000307565
3 *3034:A uio_oe[7] 0
4 *3034:A *3035:A 0
5 *3034:A *276:16 6.18224e-06
6 *3034:A *298:14 0.000242577
*RES
1 ui_in[0] *3034:A 43.296 
*END

*D_NET *11 0.00103094
*CONN
*P ui_in[1] I
*I *3035:A I *D sg13cmos5l_buf_1
*CAP
1 ui_in[1] 0.000273096
2 *3035:A 0.000273096
3 *3035:A *3036:A 0
4 *3035:A *276:16 0.000242203
5 *3035:A *298:14 0.000242544
6 *3034:A *3035:A 0
*RES
1 ui_in[1] *3035:A 43.296 
*END

*D_NET *12 0.000836905
*CONN
*P ui_in[2] I
*I *3036:A I *D sg13cmos5l_buf_1
*CAP
1 ui_in[2] 0.000241339
2 *3036:A 0.000241339
3 *3036:A *3037:A 0
4 *3036:A *276:16 0.00017663
5 *3036:A *298:14 0.000177597
6 *3035:A *3036:A 0
*RES
1 ui_in[2] *3036:A 42.8634 
*END

*D_NET *13 0.000837514
*CONN
*P ui_in[3] I
*I *3037:A I *D sg13cmos5l_buf_1
*CAP
1 ui_in[3] 0.000241673
2 *3037:A 0.000241673
3 *3037:A *3038:A 0
4 *3037:A *276:16 0.000176603
5 *3037:A *298:14 0.000177564
6 *3036:A *3037:A 0
*RES
1 ui_in[3] *3037:A 42.8634 
*END

*D_NET *14 0.00063749
*CONN
*P ui_in[4] I
*I *3038:A I *D sg13cmos5l_buf_1
*CAP
1 ui_in[4] 0.000206205
2 *3038:A 0.000206205
3 *3038:A *3039:A 0
4 *3038:A *276:16 0.00011233
5 *3038:A *298:14 0.000112749
6 *3037:A *3038:A 0
*RES
1 ui_in[4] *3038:A 42.4308 
*END

*D_NET *15 0.000591377
*CONN
*P ui_in[5] I
*I *3039:A I *D sg13cmos5l_buf_1
*CAP
1 ui_in[5] 0.000207674
2 *3039:A 0.000207674
3 *3039:A *3040:A 0
4 *3039:A *202:10 4.79124e-05
5 *3039:A *213:8 0
6 *3039:A *276:16 1.54008e-05
7 *3039:A *298:14 0.000112717
8 *3038:A *3039:A 0
*RES
1 ui_in[5] *3039:A 42.4308 
*END

*D_NET *16 0.000341803
*CONN
*P ui_in[6] I
*I *3040:A I *D sg13cmos5l_buf_1
*CAP
1 ui_in[6] 0.000170902
2 *3040:A 0.000170902
3 *3040:A *3041:A 0
4 *3039:A *3040:A 0
*RES
1 ui_in[6] *3040:A 41.9982 
*END

*D_NET *17 0.000351511
*CONN
*P ui_in[7] I
*I *3041:A I *D sg13cmos5l_buf_1
*CAP
1 ui_in[7] 0.000175755
2 *3041:A 0.000175755
3 *3041:A *3028:A 0
4 *3040:A *3041:A 0
*RES
1 ui_in[7] *3041:A 41.9982 
*END

*D_NET *18 0.000999451
*CONN
*P uio_in[0] I
*I *3028:A I *D sg13cmos5l_buf_1
*CAP
1 uio_in[0] 0.000346151
2 *3028:A 0.000346151
3 *3028:A *3029:A 0
4 *3028:A *202:10 0.00030715
5 *3028:A *224:12 0
6 *3041:A *3028:A 0
*RES
1 uio_in[0] *3028:A 43.7286 
*END

*D_NET *19 0.00076125
*CONN
*P uio_in[1] I
*I *3029:A I *D sg13cmos5l_buf_1
*CAP
1 uio_in[1] 0.000308154
2 *3029:A 0.000308154
3 *3029:A *3030:A 0
4 *3029:A *202:10 0.000144942
5 *3029:A *213:8 0
6 *3029:A *224:12 0
7 *3028:A *3029:A 0
*RES
1 uio_in[1] *3029:A 43.399 
*END

*D_NET *20 0.000634214
*CONN
*P uio_in[2] I
*I *3030:A I *D sg13cmos5l_buf_1
*CAP
1 uio_in[2] 0.000317107
2 *3030:A 0.000317107
3 *3030:A *213:8 0
4 *3030:A *224:12 0
5 *3029:A *3030:A 0
*RES
1 uio_in[2] *3030:A 43.296 
*END

*D_NET *23 0.000466137
*CONN
*P uio_in[5] I
*I *3031:A I *D sg13cmos5l_buf_1
*CAP
1 uio_in[5] 0.000209167
2 *3031:A 0.000209167
3 *3031:A *3032:A 0
4 *3031:A *224:10 4.7803e-05
5 *3031:A *228:12 0
*RES
1 uio_in[5] *3031:A 42.4308 
*END

*D_NET *24 0.000430085
*CONN
*P uio_in[6] I
*I *3032:A I *D sg13cmos5l_buf_1
*CAP
1 uio_in[6] 0.000207342
2 *3032:A 0.000207342
3 *3032:A *3033:A 0
4 *3032:A *228:10 1.54008e-05
5 *3032:A *229:10 0
6 *3031:A *3032:A 0
*RES
1 uio_in[6] *3032:A 42.4308 
*END

*D_NET *25 0.000308435
*CONN
*P uio_in[7] I
*I *3033:A I *D sg13cmos5l_buf_1
*CAP
1 uio_in[7] 0.000154218
2 *3033:A 0.000154218
3 *3032:A *3033:A 0
*RES
1 uio_in[7] *3033:A 41.9982 
*END

*D_NET *26 0.000301386
*CONN
*P uio_oe[0] O
*I *2936:L_LO O *D sg13cmos5l_tielo
*CAP
1 uio_oe[0] 0.000150693
2 *2936:L_LO 0.000150693
3 uio_oe[0] uio_oe[1] 0
4 uio_oe[0] uio_out[7] 0
5 uio_oe[0] *235:29 0
6 uio_oe[0] *238:14 0
*RES
1 *2936:L_LO uio_oe[0] 41.6789 
*END

*D_NET *27 0.00198812
*CONN
*P uio_oe[1] O
*I *2937:L_LO O *D sg13cmos5l_tielo
*CAP
1 uio_oe[1] 0.000670513
2 *2937:L_LO 0.000670513
3 uio_oe[1] uio_oe[2] 0
4 uio_oe[1] uio_out[7] 0
5 uio_oe[1] *235:6 0.00012975
6 uio_oe[1] *235:18 0.000145283
7 uio_oe[1] *238:20 0.000372058
8 uio_oe[1] *298:18 0
9 uio_oe[0] uio_oe[1] 0
*RES
1 *2937:L_LO uio_oe[1] 47.0761 
*END

*D_NET *28 0.000417249
*CONN
*P uio_oe[2] O
*I *2938:L_LO O *D sg13cmos5l_tielo
*CAP
1 uio_oe[2] 0.000208625
2 *2938:L_LO 0.000208625
3 uio_oe[2] uio_oe[3] 0
4 uio_oe[2] *276:16 0
5 uio_oe[2] *298:18 0
6 uio_oe[1] uio_oe[2] 0
*RES
1 *2938:L_LO uio_oe[2] 42.2145 
*END

*D_NET *29 0.000422022
*CONN
*P uio_oe[3] O
*I *2948:L_HI O *D sg13cmos5l_tiehi
*CAP
1 uio_oe[3] 0.000203283
2 *2948:L_HI 0.000203283
3 uio_oe[3] uio_oe[4] 0
4 uio_oe[3] *276:16 0
5 uio_oe[3] *298:14 1.54556e-05
6 uio_oe[3] *298:18 0
7 uio_oe[2] uio_oe[3] 0
*RES
1 *2948:L_HI uio_oe[3] 42.2145 
*END

*D_NET *30 0.000615357
*CONN
*P uio_oe[4] O
*I *2949:L_HI O *D sg13cmos5l_tiehi
*CAP
1 uio_oe[4] 0.000235076
2 *2949:L_HI 0.000235076
3 uio_oe[4] uio_oe[5] 0
4 uio_oe[4] *276:16 0
5 uio_oe[4] *298:14 0.000145206
6 uio_oe[3] uio_oe[4] 0
*RES
1 *2949:L_HI uio_oe[4] 42.6471 
*END

*D_NET *31 0.000611618
*CONN
*P uio_oe[5] O
*I *2939:L_LO O *D sg13cmos5l_tielo
*CAP
1 uio_oe[5] 0.000233223
2 *2939:L_LO 0.000233223
3 uio_oe[5] uio_oe[6] 0
4 uio_oe[5] *276:16 0
5 uio_oe[5] *298:14 0.000145173
6 uio_oe[4] uio_oe[5] 0
*RES
1 *2939:L_LO uio_oe[5] 42.6471 
*END

*D_NET *32 0.000477178
*CONN
*P uio_oe[6] O
*I *2940:L_LO O *D sg13cmos5l_tielo
*CAP
1 uio_oe[6] 0.000198492
2 *2940:L_LO 0.000198492
3 uio_oe[6] uio_oe[7] 0
4 uio_oe[6] *224:18 0
5 uio_oe[6] *228:22 0
6 uio_oe[6] *276:16 0
7 uio_oe[6] *298:14 8.01938e-05
8 uio_oe[5] uio_oe[6] 0
*RES
1 *2940:L_LO uio_oe[6] 42.2145 
*END

*D_NET *33 0.000535672
*CONN
*P uio_oe[7] O
*I *2941:L_LO O *D sg13cmos5l_tielo
*CAP
1 uio_oe[7] 0.000187642
2 *2941:L_LO 0.000187642
3 uio_oe[7] *2895:D 8.0194e-05
4 uio_oe[7] *228:22 0
5 uio_oe[7] *298:14 8.0194e-05
6 uio_oe[6] uio_oe[7] 0
7 *3034:A uio_oe[7] 0
*RES
1 *2941:L_LO uio_oe[7] 42.2145 
*END

*D_NET *34 0.00091927
*CONN
*P uio_out[0] O
*I *2942:L_LO O *D sg13cmos5l_tielo
*CAP
1 uio_out[0] 0.000322203
2 *2942:L_LO 0.000322203
3 uio_out[0] uio_out[1] 0
4 uio_out[0] uo_out[7] 0
5 uio_out[0] *235:18 0.000274863
6 uio_out[0] *238:20 0
*RES
1 *2942:L_LO uio_out[0] 43.5123 
*END

*D_NET *35 0.000474114
*CONN
*P uio_out[1] O
*I *2943:L_LO O *D sg13cmos5l_tielo
*CAP
1 uio_out[1] 0.000197227
2 *2943:L_LO 0.000197227
3 uio_out[1] uio_out[2] 0
4 uio_out[1] *235:18 7.96596e-05
5 uio_out[1] *238:20 0
6 uio_out[0] uio_out[1] 0
*RES
1 *2943:L_LO uio_out[1] 42.2145 
*END

*D_NET *36 0.000771014
*CONN
*P uio_out[2] O
*I *2944:L_LO O *D sg13cmos5l_tielo
*CAP
1 uio_out[2] 0.000280548
2 *2944:L_LO 0.000280548
3 uio_out[2] uio_out[3] 0
4 uio_out[2] *235:18 0.000209918
5 uio_out[2] *238:20 0
6 uio_out[1] uio_out[2] 0
*RES
1 *2944:L_LO uio_out[2] 43.0797 
*END

*D_NET *37 0.000279514
*CONN
*P uio_out[3] O
*I *3042:X O *D sg13cmos5l_buf_1
*CAP
1 uio_out[3] 0.000139757
2 *3042:X 0.000139757
3 uio_out[3] uio_out[4] 0
4 uio_out[2] uio_out[3] 0
*RES
1 *3042:X uio_out[3] 41.6789 
*END

*D_NET *38 0.000452651
*CONN
*P uio_out[4] O
*I *3043:X O *D sg13cmos5l_buf_1
*CAP
1 uio_out[4] 0.000226325
2 *3043:X 0.000226325
3 uio_out[4] uio_out[5] 0
4 uio_out[4] *152:10 0
5 uio_out[4] *287:14 0
6 uio_out[3] uio_out[4] 0
*RES
1 *3043:X uio_out[4] 42.6677 
*END

*D_NET *39 0.000776272
*CONN
*P uio_out[5] O
*I *2945:L_LO O *D sg13cmos5l_tielo
*CAP
1 uio_out[5] 0.000283076
2 *2945:L_LO 0.000283076
3 uio_out[5] uio_out[6] 0
4 uio_out[5] uio_out[7] 0
5 uio_out[5] *235:18 0
6 uio_out[5] *238:20 0.00021012
7 uio_out[5] *298:20 0
8 uio_out[4] uio_out[5] 0
*RES
1 *2945:L_LO uio_out[5] 43.1827 
*END

*D_NET *40 0.001718
*CONN
*P uio_out[6] O
*I *2946:L_LO O *D sg13cmos5l_tielo
*CAP
1 uio_out[6] 0.000455392
2 *2946:L_LO 0.000455392
3 uio_out[6] uio_out[7] 0
4 uio_out[6] *3047:A 0.000403609
5 uio_out[6] *3051:A 0.000403609
6 uio_out[6] *240:8 0
7 uio_out[6] *298:20 0
8 uio_out[5] uio_out[6] 0
*RES
1 *2946:L_LO uio_out[6] 45.3663 
*END

*D_NET *41 0.00222395
*CONN
*P uio_out[7] O
*I *2947:L_LO O *D sg13cmos5l_tielo
*CAP
1 uio_out[7] 0.00063275
2 *2947:L_LO 0.00063275
3 uio_out[7] *152:10 0.000209049
4 uio_out[7] *235:18 0.000749402
5 uio_out[7] *238:14 0
6 uio_out[7] *238:20 0
7 uio_oe[0] uio_out[7] 0
8 uio_oe[1] uio_out[7] 0
9 uio_out[5] uio_out[7] 0
10 uio_out[6] uio_out[7] 0
*RES
1 *2947:L_LO uio_out[7] 47.1379 
*END

*D_NET *42 0.000388971
*CONN
*P uo_out[0] O
*I *3044:X O *D sg13cmos5l_buf_1
*CAP
1 uo_out[0] 0.000194486
2 *3044:X 0.000194486
3 uo_out[0] uo_out[1] 0
*RES
1 *3044:X uo_out[0] 42.2145 
*END

*D_NET *43 0.000308435
*CONN
*P uo_out[1] O
*I *3045:X O *D sg13cmos5l_buf_1
*CAP
1 uo_out[1] 0.000154218
2 *3045:X 0.000154218
3 uo_out[1] uo_out[2] 0
4 uo_out[0] uo_out[1] 0
*RES
1 *3045:X uo_out[1] 41.9982 
*END

*D_NET *44 0.00025445
*CONN
*P uo_out[2] O
*I *3046:X O *D sg13cmos5l_buf_1
*CAP
1 uo_out[2] 0.000127225
2 *3046:X 0.000127225
3 uo_out[2] uo_out[3] 0
4 uo_out[1] uo_out[2] 0
*RES
1 *3046:X uo_out[2] 41.6789 
*END

*D_NET *45 0.000255414
*CONN
*P uo_out[3] O
*I *3047:X O *D sg13cmos5l_buf_1
*CAP
1 uo_out[3] 0.000127707
2 *3047:X 0.000127707
3 uo_out[3] uo_out[4] 0
4 uo_out[2] uo_out[3] 0
*RES
1 *3047:X uo_out[3] 41.6789 
*END

*D_NET *46 0.000431821
*CONN
*P uo_out[4] O
*I *3048:X O *D sg13cmos5l_buf_1
*CAP
1 uo_out[4] 0.000175781
2 *3048:X 0.000175781
3 uo_out[4] uo_out[5] 0
4 uo_out[4] *235:18 8.02595e-05
5 uo_out[3] uo_out[4] 0
*RES
1 *3048:X uo_out[4] 42.2145 
*END

*D_NET *47 0.000720475
*CONN
*P uo_out[5] O
*I *3049:X O *D sg13cmos5l_buf_1
*CAP
1 uo_out[5] 0.000255364
2 *3049:X 0.000255364
3 uo_out[5] uo_out[6] 0
4 uo_out[5] *235:18 0.000209747
5 uo_out[5] *238:20 0
6 uo_out[4] uo_out[5] 0
*RES
1 *3049:X uo_out[5] 43.0797 
*END

*D_NET *48 0.000790774
*CONN
*P uo_out[6] O
*I *3050:X O *D sg13cmos5l_buf_1
*CAP
1 uo_out[6] 0.00024247
2 *3050:X 0.00024247
3 uo_out[6] uo_out[7] 0
4 uo_out[6] *235:18 0.000177257
5 uo_out[6] *238:20 0.000128576
6 uo_out[5] uo_out[6] 0
*RES
1 *3050:X uo_out[6] 42.8634 
*END

*D_NET *49 0.000624616
*CONN
*P uo_out[7] O
*I *3051:X O *D sg13cmos5l_buf_1
*CAP
1 uo_out[7] 0.000239924
2 *3051:X 0.000239924
3 uo_out[7] *235:18 0.000144767
4 uo_out[7] *238:20 0
5 uio_out[0] uo_out[7] 0
6 uo_out[6] uo_out[7] 0
*RES
1 *3051:X uo_out[7] 42.6471 
*END

*D_NET *50 0.000465826
*CONN
*I *2743:A I *D sg13cmos5l_inv_1
*I *2905:Q O *D sg13cmos5l_dfrbpq_1
*CAP
1 *2743:A 0.000160934
2 *2905:Q 0.000160934
3 *2743:A *143:10 0.000143959
4 *2743:A *202:20 0
5 *2743:A *265:12 0
*RES
1 *2905:Q *2743:A 41.6171 
*END

*D_NET *51 0.00353102
*CONN
*I *2905:D I *D sg13cmos5l_dfrbpq_1
*I *2777:Y O *D sg13cmos5l_nand3_1
*CAP
1 *2905:D 0.000388441
2 *2777:Y 0.000573347
3 *51:10 0.000961788
4 *2905:D *2759:B 0
5 *2905:D *2905:RESET_B 0
6 *2905:D *252:18 8.0216e-05
7 *2905:D *252:27 0.000273299
8 *51:10 *113:31 1.54556e-05
9 *51:10 *143:43 0
10 *51:10 *160:24 0
11 *51:10 *160:28 0
12 *51:10 *252:18 0
13 *51:10 *254:12 0.000339385
14 *51:10 *256:10 0.000819238
15 *51:10 *308:10 7.98567e-05
*RES
1 *2777:Y *51:10 46.077 
2 *51:10 *2905:D 43.3475 
*END

*D_NET *52 0.000649988
*CONN
*I *2872:D I *D sg13cmos5l_dfrbpq_1
*I *2806:X O *D sg13cmos5l_mux2_1
*CAP
1 *2872:D 0.000203837
2 *2806:X 0.000203837
3 *2872:D *2872:RESET_B 0
4 *2872:D *256:44 0
5 *2872:D *276:47 0.000242313
*RES
1 *2806:X *2872:D 42.4617 
*END

*D_NET *53 0.000194208
*CONN
*I *2873:D I *D sg13cmos5l_dfrbpq_1
*I *2807:X O *D sg13cmos5l_mux2_1
*CAP
1 *2873:D 9.71039e-05
2 *2807:X 9.71039e-05
3 *2873:D *2807:A0 0
4 *2873:D *257:31 0
*RES
1 *2807:X *2873:D 41.133 
*END

*D_NET *54 0.000208515
*CONN
*I *2874:D I *D sg13cmos5l_dfrbpq_1
*I *2808:X O *D sg13cmos5l_mux2_1
*CAP
1 *2874:D 0.000104258
2 *2808:X 0.000104258
3 *2874:D *2808:A1 0
4 *2874:D *171:16 0
*RES
1 *2808:X *2874:D 41.133 
*END

*D_NET *55 0.00078
*CONN
*I *2954:A I *D sg13cmos5l_dlygate4sd3_1
*I *2810:X O *D sg13cmos5l_mux2_1
*CAP
1 *2954:A 0.000333692
2 *2810:X 0.000333692
3 *2954:A *2953:A 0
4 *2954:A *158:10 0
5 *2954:A *159:52 0.000112617
6 *2954:A *196:10 0
7 *2954:A *251:33 0
*RES
1 *2810:X *2954:A 43.4608 
*END

*D_NET *56 0.000753239
*CONN
*I *3018:A I *D sg13cmos5l_dlygate4sd3_1
*I *2812:X O *D sg13cmos5l_a21o_1
*CAP
1 *3018:A 0.00033028
2 *2812:X 0.00033028
3 *3018:A *2812:A1 1.49483e-05
4 *3018:A *2812:B1 7.77311e-05
5 *3018:A *2813:B_N 0
6 *3018:A *115:34 0
*RES
1 *2812:X *3018:A 43.2136 
*END

*D_NET *57 0.00244597
*CONN
*I *3004:A I *D sg13cmos5l_dlygate4sd3_1
*I *2814:X O *D sg13cmos5l_a21o_1
*CAP
1 *3004:A 0
2 *2814:X 0.00102941
3 *57:10 0.00102941
4 *57:10 *2814:B1 0
5 *57:10 *2823:A 0
6 *57:10 *60:8 0
7 *57:10 *235:6 0.000144942
8 *57:10 *235:29 0
9 *57:10 *241:42 0
10 *57:10 *276:16 0.000242203
11 *57:10 *298:18 0
*RES
1 *2814:X *57:10 49.8777 
2 *57:10 *3004:A 40 
*END

*D_NET *58 0.00243226
*CONN
*I *3006:A I *D sg13cmos5l_dlygate4sd3_1
*I *2816:X O *D sg13cmos5l_a21o_1
*CAP
1 *3006:A 4.3607e-05
2 *2816:X 0.000673776
3 *58:10 0.000717383
4 *3006:A *2821:A 8.00954e-05
5 *3006:A *2881:CLK 8.00954e-05
6 *58:10 *2816:A1 0
7 *58:10 *2882:RESET_B 4.77534e-05
8 *58:10 *2882:D 0
9 *58:10 *136:8 0
10 *58:10 *238:14 0.000501044
11 *58:10 *239:10 0
12 *58:10 *279:8 0.000288502
*RES
1 *2816:X *58:10 47.1241 
2 *58:10 *3006:A 40.5356 
*END

*D_NET *59 0.00189596
*CONN
*I *3020:A I *D sg13cmos5l_dlygate4sd3_1
*I *2818:X O *D sg13cmos5l_a21o_1
*CAP
1 *3020:A 0
2 *2818:X 0.000580303
3 *59:10 0.000580303
4 *59:10 *2818:A2 0
5 *59:10 *2818:B1 0
6 *59:10 *237:10 0
7 *59:10 *238:10 0.000234224
8 *59:10 *238:14 0.000501131
9 *59:10 *265:18 0
10 *59:10 *288:8 0
*RES
1 *2818:X *59:10 46.8186 
2 *59:10 *3020:A 40 
*END

*D_NET *60 0.00130494
*CONN
*I *3008:A I *D sg13cmos5l_dlygate4sd3_1
*I *2820:X O *D sg13cmos5l_a21o_1
*CAP
1 *3008:A 0.000367161
2 *2820:X 0.000285311
3 *60:8 0.000652472
4 *3008:A *2876:CLK 0
5 *3008:A *2878:CLK 0
6 *3008:A *133:70 0
7 *3008:A *136:8 0
8 *3008:A *236:8 0
9 *60:8 *158:14 0
10 *60:8 *241:42 0
11 *60:8 *250:66 0
12 *60:8 *250:75 0
13 *57:10 *60:8 0
*RES
1 *2820:X *60:8 42.8222 
2 *60:8 *3008:A 43.3475 
*END

*D_NET *61 0.00162668
*CONN
*I *3002:A I *D sg13cmos5l_dlygate4sd3_1
*I *2822:X O *D sg13cmos5l_a21o_1
*CAP
1 *3002:A 0
2 *2822:X 0.000394317
3 *61:10 0.000394317
4 *61:10 *2822:B1 0
5 *61:10 *2881:RESET_B 1.54008e-05
6 *61:10 *2881:CLK 0
7 *61:10 *251:39 0
8 *61:10 *265:18 0
9 *61:10 *276:28 0.000822643
*RES
1 *2822:X *61:10 45.4281 
2 *61:10 *3002:A 40 
*END

*D_NET *62 0.00151658
*CONN
*I *2999:A I *D sg13cmos5l_dlygate4sd3_1
*I *2824:X O *D sg13cmos5l_a21o_1
*CAP
1 *2999:A 0.000128302
2 *2824:X 0.000164444
3 *62:8 0.000292746
4 *2999:A *2904:CLK 0.00024216
5 *2999:A *233:6 0.00024216
6 *62:8 *140:10 0
7 *62:8 *240:8 0
8 *62:8 *265:18 0.000446767
*RES
1 *2824:X *62:8 42.3278 
2 *62:8 *2999:A 41.6171 
*END

*D_NET *63 0.000218741
*CONN
*I *2883:D I *D sg13cmos5l_dfrbpq_1
*I *2825:X O *D sg13cmos5l_mux2_1
*CAP
1 *2883:D 0.00010937
2 *2825:X 0.00010937
3 *2883:D *229:20 0
4 *2883:D *245:56 0
5 *2883:D *260:58 0
*RES
1 *2825:X *2883:D 41.133 
*END

*D_NET *64 0.000937223
*CONN
*I *2884:D I *D sg13cmos5l_dfrbpq_1
*I *2826:X O *D sg13cmos5l_mux2_1
*CAP
1 *2884:D 0.000199246
2 *2826:X 0.000148209
3 *64:8 0.000347455
4 *2884:D *229:20 0.000242313
5 *2884:D *245:56 0
6 *2884:D *256:64 0
7 *64:8 *291:8 0
*RES
1 *2826:X *64:8 41.339 
2 *64:8 *2884:D 42.0497 
*END

*D_NET *65 0.00101519
*CONN
*I *2885:D I *D sg13cmos5l_dfrbpq_1
*I *2827:X O *D sg13cmos5l_mux2_1
*CAP
1 *2885:D 0.000182356
2 *2827:X 0.0001639
3 *65:8 0.000346256
4 *2885:D *229:16 0.000242313
5 *2885:D *229:20 8.03692e-05
6 *2885:D *256:64 0
7 *2885:D *259:10 0
8 *65:8 *292:8 0
*RES
1 *2827:X *65:8 41.5862 
2 *65:8 *2885:D 42.0497 
*END

*D_NET *66 0.000906142
*CONN
*I *2886:D I *D sg13cmos5l_dfrbpq_1
*I *2828:X O *D sg13cmos5l_mux2_1
*CAP
1 *2886:D 0.000445343
2 *2828:X 0.000445343
3 *2886:D *2828:A1 0
4 *2886:D *2886:RESET_B 1.54556e-05
5 *2886:D *2886:CLK 0
*RES
1 *2828:X *2886:D 44.9234 
*END

*D_NET *67 0.00116276
*CONN
*I *2851:D I *D sg13cmos5l_dfrbpq_1
*I *2830:X O *D sg13cmos5l_mux2_1
*CAP
1 *2851:D 0.000299417
2 *2830:X 0.000299417
3 *2851:D *2851:RESET_B 4.77425e-05
4 *2851:D *245:26 0.000306673
5 *2851:D *256:26 0
6 *2851:D *258:14 0.000209505
*RES
1 *2830:X *2851:D 43.811 
*END

*D_NET *68 0.000571201
*CONN
*I *2852:D I *D sg13cmos5l_dfrbpq_1
*I *2831:X O *D sg13cmos5l_mux2_1
*CAP
1 *2852:D 0.000164444
2 *2831:X 0.000164444
3 *2852:D *256:26 0.000242313
4 *2852:D *260:22 0
*RES
1 *2831:X *2852:D 41.9673 
*END

*D_NET *69 0.000361433
*CONN
*I *2853:D I *D sg13cmos5l_dfrbpq_1
*I *2832:X O *D sg13cmos5l_mux2_1
*CAP
1 *2853:D 0.000180717
2 *2832:X 0.000180717
3 *2853:D *256:26 0
4 *2853:D *260:22 0
*RES
1 *2832:X *2853:D 41.6171 
*END

*D_NET *70 0.000219249
*CONN
*I *2854:D I *D sg13cmos5l_dfrbpq_1
*I *2833:X O *D sg13cmos5l_mux2_1
*CAP
1 *2854:D 0.000109625
2 *2833:X 0.000109625
3 *2854:D *256:26 0
*RES
1 *2833:X *2854:D 41.133 
*END

*D_NET *71 0.000504542
*CONN
*I *2855:D I *D sg13cmos5l_dfrbpq_1
*I *2834:X O *D sg13cmos5l_mux2_1
*CAP
1 *2855:D 0.00013103
2 *2834:X 0.00013103
3 *2855:D *164:22 0.000242483
*RES
1 *2834:X *2855:D 41.6171 
*END

*D_NET *72 0.000217891
*CONN
*I *2856:D I *D sg13cmos5l_dfrbpq_1
*I *2835:X O *D sg13cmos5l_mux2_1
*CAP
1 *2856:D 0.000108945
2 *2835:X 0.000108945
3 *2856:D *242:29 0
4 *2856:D *268:29 0
*RES
1 *2835:X *2856:D 41.133 
*END

*D_NET *73 0.000418332
*CONN
*I *2857:D I *D sg13cmos5l_dfrbpq_1
*I *2836:X O *D sg13cmos5l_mux2_1
*CAP
1 *2857:D 0.000209166
2 *2836:X 0.000209166
3 *2857:D *2836:A0 0
4 *2857:D *2836:S 0
*RES
1 *2836:X *2857:D 42.3999 
*END

*D_NET *74 0.000687076
*CONN
*I *2858:D I *D sg13cmos5l_dfrbpq_1
*I *2837:X O *D sg13cmos5l_mux2_1
*CAP
1 *2858:D 0.000215227
2 *2837:X 0.000215227
3 *2858:D *2808:A0 0.000209206
4 *2858:D *2837:A0 4.74163e-05
5 *2858:D *257:47 0
*RES
1 *2837:X *2858:D 42.4617 
*END

*D_NET *75 0.00112724
*CONN
*I *2992:A I *D sg13cmos5l_dlygate4sd3_1
*I *2838:X O *D sg13cmos5l_mux2_1
*CAP
1 *2992:A 0.000394062
2 *2838:X 0.000394062
3 *2992:A *2859:RESET_B 0
4 *2992:A *2861:RESET_B 0.000339114
5 *2992:A *2867:RESET_B 0
6 *2992:A *258:64 0
*RES
1 *2838:X *2992:A 44.5938 
*END

*D_NET *76 0.00114865
*CONN
*I *2988:A I *D sg13cmos5l_dlygate4sd3_1
*I *2839:X O *D sg13cmos5l_mux2_1
*CAP
1 *2988:A 0.000198046
2 *2839:X 0.000206543
3 *76:8 0.000404589
4 *2988:A *2861:RESET_B 0.000339475
5 *2988:A *2864:RESET_B 0
6 *2988:A *258:64 0
7 *76:8 *173:24 0
8 *76:8 *243:49 0
9 *76:8 *266:8 0
*RES
1 *2839:X *76:8 42.3278 
2 *76:8 *2988:A 42.266 
*END

*D_NET *77 0.00103229
*CONN
*I *2984:A I *D sg13cmos5l_dlygate4sd3_1
*I *2840:X O *D sg13cmos5l_mux2_1
*CAP
1 *2984:A 0
2 *2840:X 0.000200258
3 *77:10 0.000200258
4 *77:10 *2847:A0 0
5 *77:10 *164:72 0
6 *77:10 *256:34 0
7 *77:10 *261:27 0.000503394
8 *77:10 *262:8 0.000128379
*RES
1 *2840:X *77:10 42.8634 
2 *77:10 *2984:A 40 
*END

*D_NET *78 0.000632575
*CONN
*I *2996:A I *D sg13cmos5l_dlygate4sd3_1
*I *2841:X O *D sg13cmos5l_mux2_1
*CAP
1 *2996:A 0
2 *2841:X 0.000316288
3 *78:10 0.000316288
4 *78:10 *2841:A1 0
5 *78:10 *2864:RESET_B 0
6 *78:10 *187:10 0
7 *78:10 *260:36 0
8 *78:10 *275:8 0
*RES
1 *2841:X *78:10 42.8634 
2 *78:10 *2996:A 40 
*END

*D_NET *79 0.000699821
*CONN
*I *2994:A I *D sg13cmos5l_dlygate4sd3_1
*I *2842:X O *D sg13cmos5l_mux2_1
*CAP
1 *2994:A 0.000309781
2 *2842:X 0.000309781
3 *2994:A *2834:S 8.02598e-05
4 *2994:A *2842:A0 0
5 *2994:A *2850:A0 0
6 *2994:A *163:10 0
7 *2994:A *176:16 0
8 *2994:A *257:17 0
*RES
1 *2842:X *2994:A 43.276 
*END

*D_NET *80 0.000416504
*CONN
*I *2864:D I *D sg13cmos5l_dfrbpq_1
*I *2843:X O *D sg13cmos5l_mux2_1
*CAP
1 *2864:D 0.000208252
2 *2843:X 0.000208252
3 *2864:D *2847:A0 0
4 *2864:D *243:77 0
*RES
1 *2843:X *2864:D 41.9673 
*END

*D_NET *81 0.000844982
*CONN
*I *2986:A I *D sg13cmos5l_dlygate4sd3_1
*I *2844:X O *D sg13cmos5l_mux2_1
*CAP
1 *2986:A 0
2 *2844:X 0.000422491
3 *81:10 0.000422491
4 *81:10 *2808:A0 0
5 *81:10 *2844:A1 0
6 *81:10 *2865:D 0
7 *81:10 *2871:CLK 0
8 *81:10 *171:8 0
9 *81:10 *242:44 0
10 *81:10 *257:51 0
*RES
1 *2844:X *81:10 44.6865 
2 *81:10 *2986:A 40 
*END

*D_NET *82 0.000967775
*CONN
*I *2990:A I *D sg13cmos5l_dlygate4sd3_1
*I *2845:X O *D sg13cmos5l_mux2_1
*CAP
1 *2990:A 0.000483887
2 *2845:X 0.000483887
3 *2990:A *2845:A1 0
4 *2990:A *2989:A 0
5 *2990:A *162:40 0
6 *2990:A *256:44 0
7 *2990:A *276:47 0
*RES
1 *2845:X *2990:A 44.7792 
*END

*D_NET *83 0.000723405
*CONN
*I *2867:D I *D sg13cmos5l_dfrbpq_1
*I *2846:X O *D sg13cmos5l_mux2_1
*CAP
1 *2867:D 0.000361703
2 *2846:X 0.000361703
3 *2867:D *2867:RESET_B 0
4 *2867:D *2991:A 0
5 *2867:D *259:20 0
*RES
1 *2846:X *2867:D 43.6359 
*END

*D_NET *84 0.000187887
*CONN
*I *2868:D I *D sg13cmos5l_dfrbpq_1
*I *2847:X O *D sg13cmos5l_mux2_1
*CAP
1 *2868:D 9.39437e-05
2 *2847:X 9.39437e-05
3 *2868:D *2868:RESET_B 0
4 *2868:D *260:36 0
*RES
1 *2847:X *2868:D 41.133 
*END

*D_NET *85 0.000198957
*CONN
*I *2869:D I *D sg13cmos5l_dfrbpq_1
*I *2848:X O *D sg13cmos5l_mux2_1
*CAP
1 *2869:D 9.94784e-05
2 *2848:X 9.94784e-05
3 *2869:D *2849:S 0
4 *2869:D *2870:RESET_B 0
5 *2869:D *255:54 0
*RES
1 *2848:X *2869:D 41.133 
*END

*D_NET *86 0.00082274
*CONN
*I *2870:D I *D sg13cmos5l_dfrbpq_1
*I *2849:X O *D sg13cmos5l_mux2_1
*CAP
1 *2870:D 0.00029023
2 *2849:X 0.00029023
3 *2870:D *2849:S 0.000242281
4 *2870:D *260:36 0
*RES
1 *2849:X *2870:D 43.2033 
*END

*D_NET *87 0.000200131
*CONN
*I *2871:D I *D sg13cmos5l_dfrbpq_1
*I *2850:X O *D sg13cmos5l_mux2_1
*CAP
1 *2871:D 0.000100066
2 *2850:X 0.000100066
3 *2871:D *2808:A1 0
4 *2871:D *2850:A0 0
*RES
1 *2850:X *2871:D 41.133 
*END

*D_NET *88 0.00494697
*CONN
*I *2783:A1 I *D sg13cmos5l_a221oi_1
*I *2741:Y O *D sg13cmos5l_inv_1
*CAP
1 *2783:A1 0.000368488
2 *2741:Y 0.000482655
3 *88:8 0.000851143
4 *2783:A1 *2783:B1 1.54008e-05
5 *2783:A1 *2783:A2 1.27224e-05
6 *2783:A1 *256:10 0.0015123
7 *2783:A1 *321:25 0.000585012
8 *2783:A1 *321:27 0.000926789
9 *2783:A1 *327:36 4.75151e-05
10 *88:8 *2741:A 0.000144942
11 *88:8 *2790:A 0
12 *88:8 *2980:A 0
13 *88:8 *161:23 0
14 *88:8 *161:38 0
*RES
1 *2741:Y *88:8 44.6453 
2 *88:8 *2783:A1 47.7765 
*END

*D_NET *89 0.0160528
*CONN
*I *2793:B I *D sg13cmos5l_nor3_1
*I *2797:B I *D sg13cmos5l_nor3_1
*I *2799:B I *D sg13cmos5l_nor3_1
*I *2802:B I *D sg13cmos5l_nor3_1
*I *2787:B I *D sg13cmos5l_nor3_1
*I *2785:B I *D sg13cmos5l_nor3_1
*I *2782:B I *D sg13cmos5l_nor2_1
*I *2790:B I *D sg13cmos5l_nor3_1
*I *2742:Y O *D sg13cmos5l_inv_1
*CAP
1 *2793:B 0.000265966
2 *2797:B 0
3 *2799:B 3.28794e-05
4 *2802:B 0.00050787
5 *2787:B 7.08586e-05
6 *2785:B 0.000327459
7 *2782:B 0.000518142
8 *2790:B 0
9 *2742:Y 0.00037578
10 *89:98 0.00101033
11 *89:92 0.000836612
12 *89:84 0.000670056
13 *89:80 0.000850707
14 *89:57 0.000884511
15 *89:42 0.00124322
16 *89:21 0.00186341
17 *89:10 0.000429507
18 *89:8 0.00037578
19 *2782:B *2752:A 0
20 *2782:B *2752:B 0
21 *2782:B *2754:A2 0
22 *2782:B *2790:C 0
23 *2782:B *101:10 0.000448428
24 *2782:B *103:8 0
25 *2782:B *117:10 0.000111914
26 *2785:B *2783:A2 0.000448201
27 *2785:B *2785:A 0.000241924
28 *2785:B *2785:C 0
29 *2785:B *2786:C 0.000177268
30 *2785:B *252:67 0
31 *2787:B *2783:B1 0
32 *2787:B *2787:A 0
33 *2787:B *2787:C 1.54556e-05
34 *2787:B *160:18 0
35 *2793:B *2757:A1 0.000504629
36 *2793:B *2793:C 8.00842e-05
37 *2793:B *157:55 0
38 *2799:B *2799:C 4.78685e-05
39 *2802:B *2802:C 1.38607e-05
40 *2802:B *2804:A 0
41 *2802:B *2804:B 1.54008e-05
42 *2802:B *2804:C 8.01938e-05
43 *2802:B *108:10 0.000237523
44 *2802:B *116:25 0
45 *2802:B *131:8 0
46 *2802:B *222:8 0
47 *2802:B *330:20 0
48 *89:8 *145:23 0
49 *89:8 *218:8 0
50 *89:8 *225:12 0
51 *89:21 *2790:C 0.000145173
52 *89:21 *103:8 0
53 *89:21 *225:12 0
54 *89:42 *2761:B 0.000499536
55 *89:42 *2783:B2 0
56 *89:42 *2783:B1 0
57 *89:42 *2783:A2 0.000448701
58 *89:42 *2888:CLK 0
59 *89:42 *2956:A 0
60 *89:42 *116:59 0.000112689
61 *89:42 *116:65 0
62 *89:42 *116:80 0.000289687
63 *89:42 *247:8 0.000177373
64 *89:42 *252:80 0
65 *89:42 *327:36 0
66 *89:80 *2787:C 0
67 *89:80 *2912:A 0
68 *89:80 *3024:A 0
69 *89:80 *92:10 0
70 *89:80 *116:55 0
71 *89:80 *160:18 0
72 *89:80 *214:20 0.000236347
73 *89:80 *215:28 0
74 *89:80 *306:12 0.000137132
75 *89:80 *312:6 0.000112426
76 *89:80 *312:33 0.00024122
77 *89:80 *327:10 0
78 *89:84 *2757:A1 0.000128663
79 *89:92 *2757:A1 0
80 *89:92 *116:47 0
81 *89:92 *215:28 0
82 *89:92 *249:56 7.51285e-05
83 *89:92 *249:66 0
84 *89:92 *312:6 0
85 *89:98 *2771:A2 0
86 *89:98 *2797:A 0
87 *89:98 *2798:C 0
88 *89:98 *116:47 0
89 *89:98 *128:8 0.00034079
90 *89:98 *215:10 0.000342034
91 *89:98 *246:29 8.00842e-05
92 *89:98 *249:72 0
93 *89:98 *330:20 0
*RES
1 *2742:Y *89:8 44.5526 
2 *89:8 *89:10 20 
3 *89:10 *2790:B 20 
4 *89:10 *89:21 24.7792 
5 *89:21 *2782:B 45.8092 
6 *89:21 *89:42 49.8159 
7 *89:42 *2785:B 44.0479 
8 *89:42 *89:57 20 
9 *89:57 *2787:B 20.7519 
10 *89:57 *89:80 48.1576 
11 *89:80 *89:84 20.5974 
12 *89:84 *89:92 23.6159 
13 *89:92 *89:98 25.1191 
14 *89:98 *2802:B 45.1603 
15 *89:98 *2799:B 40.3193 
16 *89:92 *2797:B 20 
17 *89:84 *2793:B 43.0797 
*END

*D_NET *90 0.00123749
*CONN
*I *2750:A1 I *D sg13cmos5l_a21o_1
*I *2744:Y O *D sg13cmos5l_nand2b_1
*CAP
1 *2750:A1 0.000415232
2 *2744:Y 0.000415232
3 *2750:A1 *244:32 0
4 *2750:A1 *244:44 0.000165763
5 *2750:A1 *249:113 0.000241258
*RES
1 *2744:Y *2750:A1 44.362 
*END

*D_NET *91 0.000964665
*CONN
*I *2749:A I *D sg13cmos5l_nand4_1
*I *2745:Y O *D sg13cmos5l_nor3_1
*CAP
1 *2749:A 6.06621e-05
2 *2745:Y 0.000381905
3 *91:14 0.000442568
4 *2749:A *2768:A 7.95302e-05
5 *2749:A *93:14 0
6 *91:14 *2768:B 0
7 *91:14 *2775:C 0
8 *91:14 *2775:D 0
9 *91:14 *92:10 0
10 *91:14 *95:22 0
11 *91:14 *112:12 0
12 *91:14 *216:34 0
*RES
1 *2745:Y *91:14 43.5288 
2 *91:14 *2749:A 40.5356 
*END

*D_NET *92 0.00257071
*CONN
*I *2749:B I *D sg13cmos5l_nand4_1
*I *2746:Y O *D sg13cmos5l_nor4_1
*CAP
1 *2749:B 0
2 *2746:Y 0.000825502
3 *92:10 0.000825502
4 *92:10 *2746:C 0
5 *92:10 *2746:D 1.54556e-05
6 *92:10 *2891:D 0
7 *92:10 *116:55 0.000112601
8 *92:10 *214:20 0
9 *92:10 *216:34 0
10 *92:10 *234:14 0
11 *92:10 *245:20 0
12 *92:10 *252:67 0.000287672
13 *92:10 *312:33 0.00050398
14 *89:80 *92:10 0
15 *91:14 *92:10 0
*RES
1 *2746:Y *92:10 49.0125 
2 *92:10 *2749:B 40 
*END

*D_NET *93 0.00185213
*CONN
*I *2749:C I *D sg13cmos5l_nand4_1
*I *2768:B I *D sg13cmos5l_nor3_1
*I *2747:Y O *D sg13cmos5l_nor2b_1
*CAP
1 *2749:C 0
2 *2768:B 0.000284926
3 *2747:Y 0.000160781
4 *93:14 0.000335331
5 *93:10 0.000211186
6 *2768:B *2749:D 1.49483e-05
7 *2768:B *2768:A 0
8 *2768:B *2768:C 0.000112558
9 *2768:B *2775:C 0
10 *2768:B *2775:D 0
11 *2768:B *244:32 0
12 *93:10 *2749:D 0
13 *93:10 *95:22 0.000234845
14 *93:10 *112:20 0.000144118
15 *93:10 *234:14 0.000288936
16 *93:14 *2749:D 6.45049e-05
17 *2749:A *93:14 0
18 *91:14 *2768:B 0
*RES
1 *2747:Y *93:10 42.3072 
2 *93:10 *93:14 20.5356 
3 *93:14 *2768:B 22.7192 
4 *93:14 *2749:C 20 
*END

*D_NET *94 0.00396248
*CONN
*I *2749:D I *D sg13cmos5l_nand4_1
*I *2748:Y O *D sg13cmos5l_nor2b_1
*CAP
1 *2749:D 0.000240176
2 *2748:Y 0.000710446
3 *94:12 0.000950622
4 *2749:D *2768:A 0
5 *2749:D *112:20 0
6 *2749:D *191:33 0
7 *2749:D *248:33 4.77425e-05
8 *94:12 *2777:B 0
9 *94:12 *113:31 0.000557557
10 *94:12 *114:29 0.000446545
11 *94:12 *143:24 0
12 *94:12 *248:10 0.000288777
13 *94:12 *248:25 0.00023782
14 *94:12 *248:33 0
15 *94:12 *254:12 0.000403346
16 *94:12 *308:10 0
17 *2768:B *2749:D 1.49483e-05
18 *93:10 *2749:D 0
19 *93:14 *2749:D 6.45049e-05
*RES
1 *2748:Y *94:12 48.7756 
2 *94:12 *2749:D 42.266 
*END

*D_NET *95 0.00198128
*CONN
*I *2781:B I *D sg13cmos5l_nand2b_1
*I *2750:A2 I *D sg13cmos5l_a21o_1
*I *2749:Y O *D sg13cmos5l_nand4_1
*CAP
1 *2781:B 0
2 *2750:A2 0
3 *2749:Y 0
4 *95:35 0.000173211
5 *95:22 0.000306974
6 *95:10 0.000533326
7 *95:6 5.31406e-05
8 *95:10 *116:14 0
9 *95:10 *295:59 0
10 *95:22 *112:12 7.52149e-05
11 *95:22 *244:32 0.000230149
12 *95:22 *295:59 3.72284e-05
13 *95:22 *309:32 0.000183897
14 *95:35 *114:29 7.66466e-05
15 *95:35 *116:14 0
16 *95:35 *245:20 7.66466e-05
17 *95:35 *295:59 0
18 *91:14 *95:22 0
19 *93:10 *95:22 0.000234845
*RES
1 *2749:Y *95:6 40 
2 *95:6 *95:10 20.6077 
3 *95:10 *95:22 43.9964 
4 *95:22 *2750:A2 20 
5 *95:10 *95:35 42.1115 
6 *95:35 *2781:B 20 
*END

*D_NET *96 0.00276697
*CONN
*I *2779:A I *D sg13cmos5l_nand4_1
*I *2777:A I *D sg13cmos5l_nand3_1
*I *2751:A I *D sg13cmos5l_inv_1
*I *2750:X O *D sg13cmos5l_a21o_1
*CAP
1 *2779:A 0
2 *2777:A 0.000161265
3 *2751:A 0.000470552
4 *2750:X 5.29161e-05
5 *96:46 0.000250065
6 *96:10 0.000817403
7 *96:6 0.000488567
8 *2751:A *2895:CLK 0
9 *2751:A *143:24 0
10 *2751:A *234:14 0
11 *2751:A *254:12 0
12 *2777:A *143:24 0
13 *2777:A *254:12 0.000268471
14 *96:6 *160:28 0
15 *96:6 *249:113 3.0644e-05
16 *96:10 *234:14 0
17 *96:46 *2775:A 0
18 *96:46 *115:20 2.22581e-05
19 *96:46 *160:28 0
20 *96:46 *234:14 7.64739e-05
21 *96:46 *244:32 0
22 *96:46 *245:20 0.000128358
*RES
1 *2750:X *96:6 20.5356 
2 *96:6 *96:10 21.8334 
3 *96:10 *2751:A 44.841 
4 *96:10 *2777:A 41.7974 
5 *96:6 *96:46 42.9046 
6 *96:46 *2779:A 20 
*END

*D_NET *97 0.00299473
*CONN
*I *2790:C I *D sg13cmos5l_nor3_1
*I *2754:A1 I *D sg13cmos5l_a21oi_1
*I *2752:Y O *D sg13cmos5l_nand2_1
*CAP
1 *2790:C 0.000823435
2 *2754:A1 0.00048834
3 *2752:Y 0
4 *97:6 0.00131178
5 *2754:A1 *2752:A 0
6 *2754:A1 *2754:A2 0.000226004
7 *2754:A1 *2763:B1 0
8 *2754:A1 *101:10 0
9 *2754:A1 *197:52 0
10 *2754:A1 *244:18 0
11 *2790:C *2752:A 0
12 *2790:C *2761:A 0
13 *2790:C *101:10 0
14 *2790:C *247:83 0
15 *2782:B *2790:C 0
16 *89:21 *2790:C 0.000145173
*RES
1 *2752:Y *97:6 40 
2 *97:6 *2754:A1 45.1242 
3 *97:6 *2790:C 48.1473 
*END

*D_NET *98 0.000763484
*CONN
*I *2754:A2 I *D sg13cmos5l_a21oi_1
*I *2753:Y O *D sg13cmos5l_nand2b_1
*CAP
1 *2754:A2 0.00026874
2 *2753:Y 0.00026874
3 *2754:A2 *101:14 0
4 *2754:A2 *117:10 0
5 *2754:A2 *244:8 0
6 *2754:A2 *244:18 0
7 *2754:A1 *2754:A2 0.000226004
8 *2782:B *2754:A2 0
*RES
1 *2753:Y *2754:A2 43.0488 
*END

*D_NET *99 0.0067554
*CONN
*I *2793:C I *D sg13cmos5l_nor3_1
*I *2757:A1 I *D sg13cmos5l_a21oi_1
*I *2755:Y O *D sg13cmos5l_nand2_1
*CAP
1 *2793:C 4.37077e-05
2 *2757:A1 0.000653547
3 *2755:Y 3.37084e-05
4 *99:10 0.00175995
5 *99:8 0.00109641
6 *2757:A1 *2757:A2 0
7 *2757:A1 *2892:CLK 0.000209856
8 *2757:A1 *157:55 0
9 *2757:A1 *214:20 0
10 *2757:A1 *249:56 0
11 *2757:A1 *249:66 3.24568e-05
12 *2757:A1 *249:72 1.54449e-05
13 *2757:A1 *312:6 0.000435346
14 *2757:A1 *312:12 0
15 *2757:A1 *329:20 0
16 *2757:A1 *330:41 0
17 *2793:C *2795:B 8.00842e-05
18 *99:8 *246:99 1.53326e-05
19 *99:10 *123:8 0.00071542
20 *99:10 *157:55 0
21 *99:10 *206:8 0
22 *99:10 *214:8 0.000342122
23 *99:10 *228:24 0
24 *99:10 *246:89 0
25 *99:10 *246:99 0.000608636
26 *99:10 *330:41 0
27 *2793:B *2757:A1 0.000504629
28 *2793:B *2793:C 8.00842e-05
29 *89:84 *2757:A1 0.000128663
30 *89:92 *2757:A1 0
*RES
1 *2755:Y *99:8 40.3193 
2 *99:8 *99:10 12.2158 
3 *99:10 *2757:A1 47.4778 
4 *99:10 *2793:C 40.5356 
*END

*D_NET *100 0.003313
*CONN
*I *2757:A2 I *D sg13cmos5l_a21oi_1
*I *2756:Y O *D sg13cmos5l_nand2b_1
*CAP
1 *2757:A2 0.000467047
2 *2756:Y 0.000345158
3 *100:12 0.000812205
4 *2757:A2 *2892:CLK 0.00033942
5 *2757:A2 *306:12 0.000759254
6 *2757:A2 *312:33 0
7 *100:12 *160:10 0.000176715
8 *100:12 *160:18 0
9 *100:12 *214:20 0.000181192
10 *100:12 *306:12 0.000232007
11 *100:12 *312:12 0
12 *2757:A1 *2757:A2 0
*RES
1 *2756:Y *100:12 43.6771 
2 *100:12 *2757:A2 45.0779 
*END

*D_NET *101 0.00540039
*CONN
*I *2760:A1 I *D sg13cmos5l_a21oi_1
*I *2783:A2 I *D sg13cmos5l_a221oi_1
*I *2785:C I *D sg13cmos5l_nor3_1
*I *2758:Y O *D sg13cmos5l_nand2_1
*CAP
1 *2760:A1 0
2 *2783:A2 0.000439964
3 *2785:C 0.000155556
4 *2758:Y 0.00034778
5 *101:24 0.00059552
6 *101:22 0.000661997
7 *101:14 0.000783523
8 *101:10 0.000469307
9 *2783:A2 *2783:B1 0
10 *2783:A2 *116:65 2.48587e-05
11 *2783:A2 *220:14 0
12 *2783:A2 *328:38 0
13 *2785:C *2786:C 0.000209615
14 *2785:C *328:22 0.000274507
15 *101:10 *2752:B 0
16 *101:10 *2763:B1 0
17 *101:10 *197:46 7.9706e-05
18 *101:14 *2760:B1 0
19 *101:14 *117:10 0
20 *101:22 *2760:B1 0
21 *101:22 *2763:A2 0
22 *101:22 *2784:B1 0
23 *101:22 *2786:B 0
24 *101:22 *2976:A 0
25 *101:22 *2977:A 0
26 *101:22 *117:10 0
27 *101:22 *247:32 0
28 *101:22 *252:57 0
29 *101:22 *310:18 0
30 *101:22 *320:23 0
31 *101:22 *321:44 0
32 *2754:A1 *101:10 0
33 *2754:A2 *101:14 0
34 *2782:B *101:10 0.000448428
35 *2783:A1 *2783:A2 1.27224e-05
36 *2785:B *2783:A2 0.000448201
37 *2785:B *2785:C 0
38 *2790:C *101:10 0
39 *89:42 *2783:A2 0.000448701
*RES
1 *2758:Y *101:10 43.605 
2 *101:10 *101:14 21.1845 
3 *101:14 *101:22 46.2624 
4 *101:22 *101:24 20 
5 *101:24 *2785:C 41.8334 
6 *101:24 *2783:A2 45.3071 
7 *101:14 *2760:A1 20 
*END

*D_NET *102 0.00110694
*CONN
*I *2760:A2 I *D sg13cmos5l_a21oi_1
*I *2759:Y O *D sg13cmos5l_nand2b_1
*CAP
1 *2760:A2 0
2 *2759:Y 0.000355416
3 *102:10 0.000355416
4 *102:10 *2759:B 0
5 *102:10 *2763:B1 0.000320979
6 *102:10 *191:14 0
7 *102:10 *191:25 7.51285e-05
8 *102:10 *309:8 0
*RES
1 *2759:Y *102:10 43.3578 
2 *102:10 *2760:A2 40 
*END

*D_NET *103 0.00355512
*CONN
*I *2787:C I *D sg13cmos5l_nor3_1
*I *2763:A1 I *D sg13cmos5l_a21oi_1
*I *2761:Y O *D sg13cmos5l_nand2_1
*CAP
1 *2787:C 0.000676515
2 *2763:A1 0.000198781
3 *2761:Y 0.000179417
4 *103:8 0.00105471
5 *2763:A1 *2763:A2 3.15716e-05
6 *2763:A1 *117:10 0
7 *2763:A1 *247:14 7.51285e-05
8 *2787:C *2783:B2 0
9 *2787:C *2787:A 0
10 *2787:C *2956:A 0
11 *2787:C *120:12 0.000110935
12 *2787:C *247:14 0.000563458
13 *2787:C *247:32 4.77425e-05
14 *2787:C *320:23 4.77425e-05
15 *103:8 *2761:A 0.00023464
16 *103:8 *247:14 0.000319022
17 *2782:B *103:8 0
18 *2787:B *2787:C 1.54556e-05
19 *89:21 *103:8 0
20 *89:80 *2787:C 0
*RES
1 *2761:Y *103:8 42.575 
2 *103:8 *2763:A1 42.1166 
3 *103:8 *2787:C 46.2424 
*END

*D_NET *104 0.00140852
*CONN
*I *2763:A2 I *D sg13cmos5l_a21oi_1
*I *2762:Y O *D sg13cmos5l_nand2b_1
*CAP
1 *2763:A2 0.00052049
2 *2762:Y 0.00052049
3 *2763:A2 *2752:B 0.000175721
4 *2763:A2 *2762:B 0
5 *2763:A2 *2763:B1 0
6 *2763:A2 *2784:B1 0
7 *2763:A2 *2888:RESET_B 8.00842e-05
8 *2763:A2 *117:10 0
9 *2763:A2 *120:12 0
10 *2763:A2 *160:18 8.01609e-05
11 *2763:A2 *197:46 0
12 *2763:A2 *310:8 0
13 *2763:A1 *2763:A2 3.15716e-05
14 *101:22 *2763:A2 0
*RES
1 *2762:Y *2763:A2 44.7792 
*END

*D_NET *105 0.00259123
*CONN
*I *2802:C I *D sg13cmos5l_nor3_1
*I *2766:A1 I *D sg13cmos5l_a21oi_1
*I *2764:Y O *D sg13cmos5l_nand2_1
*CAP
1 *2802:C 0.000231393
2 *2766:A1 0.000309931
3 *2764:Y 0.000130145
4 *105:8 0.00067147
5 *2766:A1 *2766:A2 8.00842e-05
6 *2766:A1 *2893:CLK 0
7 *2766:A1 *224:20 0.000340533
8 *2766:A1 *244:70 0
9 *2802:C *250:31 0
10 *2802:C *306:50 0.0001127
11 *2802:C *324:10 0
12 *2802:C *329:28 0.000306035
13 *105:8 *224:20 0.000395078
14 *105:8 *306:50 0
15 *2802:B *2802:C 1.38607e-05
*RES
1 *2764:Y *105:8 41.8334 
2 *105:8 *2766:A1 43.2033 
3 *105:8 *2802:C 42.472 
*END

*D_NET *106 0.00142952
*CONN
*I *2766:A2 I *D sg13cmos5l_a21oi_1
*I *2765:Y O *D sg13cmos5l_nand2b_1
*CAP
1 *2766:A2 4.37077e-05
2 *2765:Y 0.000400398
3 *106:10 0.000444106
4 *2766:A2 *2893:CLK 8.00842e-05
5 *106:10 *2765:A_N 0
6 *106:10 *2803:A2 0
7 *106:10 *2813:B_N 1.54008e-05
8 *106:10 *2893:CLK 0
9 *106:10 *244:46 0
10 *106:10 *249:97 0
11 *106:10 *249:113 0.000182872
12 *106:10 *250:19 0.000182872
13 *2766:A1 *2766:A2 8.00842e-05
*RES
1 *2765:Y *106:10 43.9758 
2 *106:10 *2766:A2 40.5356 
*END

*D_NET *107 0.00100835
*CONN
*I *2768:C I *D sg13cmos5l_nor3_1
*I *2767:Y O *D sg13cmos5l_nor2_1
*CAP
1 *2768:C 7.55754e-05
2 *2767:Y 0.000135518
3 *107:8 0.000211094
4 *107:8 *112:12 0
5 *107:8 *216:34 0.000342581
6 *107:8 *307:24 0.000131027
7 *107:8 *326:14 0
8 *2768:B *2768:C 0.000112558
*RES
1 *2767:Y *107:8 41.8334 
2 *107:8 *2768:C 40.7519 
*END

*D_NET *108 0.00145586
*CONN
*I *2799:C I *D sg13cmos5l_nor3_1
*I *2771:A1 I *D sg13cmos5l_a21oi_1
*I *2769:Y O *D sg13cmos5l_nand2_1
*CAP
1 *2799:C 6.18381e-05
2 *2771:A1 0.000183403
3 *2769:Y 7.64776e-05
4 *108:12 0.000245241
5 *108:10 7.64776e-05
6 *2771:A1 *2771:A2 0
7 *2771:A1 *2771:B1 4.7803e-05
8 *2771:A1 *2972:A 0.000144091
9 *2771:A1 *327:20 0
10 *2799:C *2972:A 9.71568e-05
11 *2799:C *306:24 0
12 *108:10 *330:20 0.000237983
13 *2799:B *2799:C 4.78685e-05
14 *2802:B *108:10 0.000237523
*RES
1 *2769:Y *108:10 41.442 
2 *108:10 *108:12 20 
3 *108:12 *2771:A1 21.9673 
4 *108:12 *2799:C 20.7519 
*END

*D_NET *109 0.00073218
*CONN
*I *2771:A2 I *D sg13cmos5l_a21oi_1
*I *2770:Y O *D sg13cmos5l_nand2b_1
*CAP
1 *2771:A2 0.00036609
2 *2770:Y 0.00036609
3 *2771:A2 *2770:A_N 0
4 *2771:A2 *2801:B 0
5 *2771:A2 *306:14 0
6 *2771:A2 *306:24 0
7 *2771:A1 *2771:A2 0
8 *89:98 *2771:A2 0
*RES
1 *2770:Y *2771:A2 43.5432 
*END

*D_NET *110 0.0077119
*CONN
*I *2774:A1 I *D sg13cmos5l_a21oi_1
*I *2797:C I *D sg13cmos5l_nor3_1
*I *2772:Y O *D sg13cmos5l_nand2_1
*CAP
1 *2774:A1 0
2 *2797:C 0
3 *2772:Y 5.92869e-05
4 *110:33 0.00041875
5 *110:20 0.000466593
6 *110:12 0.00168508
7 *110:8 0.000859023
8 *110:8 *2791:A2 0
9 *110:8 *2899:CLK 0
10 *110:12 *2746:C 0
11 *110:12 *207:8 0
12 *110:12 *212:10 0
13 *110:12 *214:20 0.000454135
14 *110:12 *245:20 0
15 *110:12 *246:63 0.00104378
16 *110:12 *246:74 0
17 *110:12 *246:89 0
18 *110:20 *224:20 0
19 *110:20 *246:12 0
20 *110:20 *249:48 0.000375412
21 *110:20 *330:14 0.000164298
22 *110:20 *330:20 0.000603826
23 *110:20 *331:20 0.000182389
24 *110:33 *197:22 0
25 *110:33 *249:48 0.00072
26 *110:33 *313:8 0
27 *110:33 *328:38 7.5116e-05
28 *110:33 *330:14 0.000604216
*RES
1 *2772:Y *110:8 40.5356 
2 *110:8 *110:12 30.2382 
3 *110:12 *110:20 45.9225 
4 *110:20 *2797:C 20 
5 *110:12 *110:33 45.4281 
6 *110:33 *2774:A1 20 
*END

*D_NET *111 0.000633168
*CONN
*I *2774:A2 I *D sg13cmos5l_a21oi_1
*I *2773:Y O *D sg13cmos5l_nand2b_1
*CAP
1 *2774:A2 0.000278886
2 *2773:Y 0.000278886
3 *2774:A2 *122:16 7.53965e-05
4 *2774:A2 *249:36 0
5 *2774:A2 *249:48 0
*RES
1 *2773:Y *2774:A2 42.8428 
*END

*D_NET *112 0.0030064
*CONN
*I *2779:B I *D sg13cmos5l_nand4_1
*I *2777:B I *D sg13cmos5l_nand3_1
*I *2775:Y O *D sg13cmos5l_nor4_1
*CAP
1 *2779:B 3.35127e-05
2 *2777:B 0.000138788
3 *2775:Y 0.000134817
4 *112:20 0.000421109
5 *112:12 0.000383625
6 *2777:B *245:20 0.000557131
7 *2777:B *248:10 0.000182626
8 *2777:B *248:25 0.00021498
9 *2779:B *113:16 4.77425e-05
10 *112:12 *216:34 0
11 *112:12 *309:32 0
12 *112:20 *114:29 0.000181438
13 *112:20 *244:22 1.54008e-05
14 *112:20 *244:32 0.000208615
15 *112:20 *245:20 0.000267283
16 *2749:D *112:20 0
17 *91:14 *112:12 0
18 *93:10 *112:20 0.000144118
19 *94:12 *2777:B 0
20 *95:22 *112:12 7.52149e-05
21 *107:8 *112:12 0
*RES
1 *2775:Y *112:12 41.6995 
2 *112:12 *112:20 43.1724 
3 *112:20 *2777:B 42.575 
4 *112:20 *2779:B 40.3193 
*END

*D_NET *113 0.00423105
*CONN
*I *2777:C I *D sg13cmos5l_nand3_1
*I *2779:C I *D sg13cmos5l_nand4_1
*I *2776:Y O *D sg13cmos5l_nor4_1
*CAP
1 *2777:C 0
2 *2779:C 0
3 *2776:Y 0.000583792
4 *113:31 0.000291754
5 *113:16 0.000346068
6 *113:12 0.000638105
7 *113:12 *2768:A 0.000402027
8 *113:12 *2894:D 3.8639e-05
9 *113:12 *116:10 4.77348e-05
10 *113:12 *214:20 0
11 *113:12 *234:14 0
12 *113:12 *245:20 0.000770441
13 *113:12 *310:18 0
14 *113:16 *2775:A 1.54008e-05
15 *113:16 *2779:D 1.54008e-05
16 *113:31 *2779:D 4.69735e-05
17 *113:31 *114:16 6.43691e-05
18 *113:31 *115:20 0
19 *113:31 *160:28 0.000112426
20 *113:31 *248:33 0.00023716
21 *113:31 *254:12 0
22 *113:31 *256:10 0
23 *2779:B *113:16 4.77425e-05
24 *51:10 *113:31 1.54556e-05
25 *94:12 *113:31 0.000557557
*RES
1 *2776:Y *113:12 46.8289 
2 *113:12 *113:16 20.5356 
3 *113:16 *2779:C 20 
4 *113:16 *113:31 44.0788 
5 *113:31 *2777:C 20 
*END

*D_NET *114 0.00579218
*CONN
*I *2783:B1 I *D sg13cmos5l_a221oi_1
*I *2779:D I *D sg13cmos5l_nand4_1
*I *2778:X O *D sg13cmos5l_and2_1
*CAP
1 *2783:B1 0.000225334
2 *2779:D 3.04572e-05
3 *2778:X 0.000226963
4 *114:29 0.000942396
5 *114:16 0.000821653
6 *114:12 0.000301097
7 *2779:D *2775:A 4.77425e-05
8 *2783:B1 *2783:B2 1.54008e-05
9 *2783:B1 *116:59 0
10 *2783:B1 *327:10 0
11 *114:12 *2778:A 0
12 *114:12 *115:20 0.000143495
13 *114:12 *248:33 0.000289708
14 *114:12 *249:113 0
15 *114:12 *307:39 0.000467851
16 *114:16 *2775:A 0.000143818
17 *114:29 *223:25 0.000554589
18 *114:29 *234:18 0
19 *114:29 *245:20 0
20 *114:29 *246:8 0
21 *114:29 *247:52 0.000607119
22 *114:29 *295:59 0.00012778
23 *2783:A1 *2783:B1 1.54008e-05
24 *2783:A2 *2783:B1 0
25 *2787:B *2783:B1 0
26 *89:42 *2783:B1 0
27 *94:12 *114:29 0.000446545
28 *95:35 *114:29 7.66466e-05
29 *112:20 *114:29 0.000181438
30 *113:16 *2779:D 1.54008e-05
31 *113:31 *2779:D 4.69735e-05
32 *113:31 *114:16 6.43691e-05
*RES
1 *2778:X *114:12 43.3063 
2 *114:12 *114:16 20.9682 
3 *114:16 *2779:D 20.3193 
4 *114:16 *114:29 48.755 
5 *114:29 *2783:B1 22.0497 
*END

*D_NET *115 0.00869352
*CONN
*I *2919:A I *D sg13cmos5l_buf_1
*I *2821:A I *D sg13cmos5l_nor2b_1
*I *2779:Y O *D sg13cmos5l_nand4_1
*CAP
1 *2919:A 0
2 *2821:A 0.000753673
3 *2779:Y 0.000214628
4 *115:34 0.00188233
5 *115:28 0.00112865
6 *115:26 0.000907833
7 *115:20 0.00112246
8 *2821:A *2811:A 0
9 *2821:A *2881:CLK 0
10 *2821:A *136:8 0
11 *2821:A *250:58 0.000208879
12 *2821:A *250:66 0.000306662
13 *2821:A *289:10 0.000242017
14 *2821:A *333:22 0
15 *115:20 *160:28 0
16 *115:20 *234:14 7.5468e-05
17 *115:20 *249:113 0
18 *115:26 *249:84 0.000144623
19 *115:26 *251:25 0.000571865
20 *115:26 *309:22 8.09323e-05
21 *115:34 *2812:A1 0
22 *115:34 *2812:B1 0
23 *115:34 *2813:A 0.000242203
24 *115:34 *2813:B_N 0
25 *115:34 *2876:CLK 0
26 *115:34 *2877:RESET_B 0
27 *115:34 *133:24 0.000565449
28 *115:34 *135:14 0
29 *115:34 *241:18 0
30 *115:34 *241:42 0
31 *115:34 *250:58 0
32 *3006:A *2821:A 8.00954e-05
33 *3018:A *115:34 0
34 *96:46 *115:20 2.22581e-05
35 *113:31 *115:20 0
36 *114:12 *115:20 0.000143495
*RES
1 *2779:Y *115:20 42.5183 
2 *115:20 *115:26 48.9713 
3 *115:26 *115:28 20 
4 *115:28 *115:34 30.6502 
5 *115:34 *2821:A 47.2409 
6 *115:28 *2919:A 20 
*END

*D_NET *116 0.0132084
*CONN
*I *2786:A I *D sg13cmos5l_nor3_1
*I *2795:A I *D sg13cmos5l_nor3_1
*I *2792:A I *D sg13cmos5l_nor3_1
*I *2789:A I *D sg13cmos5l_nor3_1
*I *2783:C1 I *D sg13cmos5l_a221oi_1
*I *2798:A I *D sg13cmos5l_nor3_1
*I *2801:A I *D sg13cmos5l_nor3_1
*I *2804:A I *D sg13cmos5l_nor3_1
*I *2781:Y O *D sg13cmos5l_nand2b_1
*CAP
1 *2786:A 0
2 *2795:A 6.52805e-05
3 *2792:A 0
4 *2789:A 0
5 *2783:C1 0
6 *2798:A 0
7 *2801:A 0
8 *2804:A 8.5896e-05
9 *2781:Y 0
10 *116:109 0.000501306
11 *116:80 0.000248652
12 *116:65 0.000163389
13 *116:59 0.000672727
14 *116:55 0.000983698
15 *116:47 0.00138446
16 *116:36 0.000801305
17 *116:25 0.000674719
18 *116:14 0.00149904
19 *116:10 0.000972475
20 *116:4 0.000530214
21 *2795:A *323:10 0.00018239
22 *2795:A *329:20 0
23 *2804:A *297:8 0
24 *116:10 *310:18 0
25 *116:14 *234:14 0
26 *116:14 *249:131 0
27 *116:14 *295:59 0
28 *116:14 *331:20 0
29 *116:25 *330:20 0
30 *116:25 *333:8 0
31 *116:36 *129:8 0.000235141
32 *116:36 *151:27 0.000289417
33 *116:36 *246:44 0.000393736
34 *116:36 *330:20 0
35 *116:36 *333:8 0
36 *116:47 *2796:A2 0
37 *116:47 *2798:B 0.000532271
38 *116:47 *2968:A 0.000339311
39 *116:47 *215:28 0
40 *116:47 *331:10 0
41 *116:55 *2746:D 0
42 *116:55 *2792:C 0
43 *116:55 *2793:A 0
44 *116:55 *2795:B 0
45 *116:55 *3024:A 0
46 *116:55 *122:16 1.54008e-05
47 *116:55 *215:28 0.000337719
48 *116:55 *312:33 0
49 *116:55 *323:10 2.21356e-05
50 *116:55 *329:20 0
51 *116:59 *3024:A 1.54008e-05
52 *116:59 *122:16 0
53 *116:59 *249:48 4.78356e-05
54 *116:65 *252:80 0
55 *116:65 *328:38 0.000446853
56 *116:80 *120:12 0.00023464
57 *116:80 *197:33 0.00023464
58 *116:80 *249:36 0.000289687
59 *116:80 *249:48 1.54008e-05
60 *116:109 *191:33 0
61 *116:109 *220:14 0.000112308
62 *116:109 *256:10 0.000181192
63 *116:109 *310:18 0.000112198
64 *2783:B1 *116:59 0
65 *2783:A2 *116:65 2.48587e-05
66 *2802:B *2804:A 0
67 *2802:B *116:25 0
68 *89:42 *116:59 0.000112689
69 *89:42 *116:65 0
70 *89:42 *116:80 0.000289687
71 *89:80 *116:55 0
72 *89:92 *116:47 0
73 *89:98 *116:47 0
74 *92:10 *116:55 0.000112601
75 *95:10 *116:14 0
76 *95:35 *116:14 0
77 *113:12 *116:10 4.77348e-05
*RES
1 *2781:Y *116:4 20 
2 *116:4 *116:10 40.3193 
3 *116:10 *116:14 31.1343 
4 *116:14 *2804:A 40.8446 
5 *116:14 *116:25 4.3054 
6 *116:25 *2801:A 40 
7 *116:25 *116:36 23.3166 
8 *116:36 *2798:A 20 
9 *116:36 *116:47 26.2624 
10 *116:47 *116:55 26.6744 
11 *116:55 *116:59 2.6162 
12 *116:59 *116:65 42.0806 
13 *116:65 *2783:C1 20 
14 *116:59 *116:80 43.4608 
15 *116:80 *2789:A 20 
16 *116:55 *2792:A 20 
17 *116:47 *2795:A 40.8446 
18 *116:4 *116:109 44.944 
19 *116:109 *2786:A 20 
*END

*D_NET *117 0.00309559
*CONN
*I *2783:B2 I *D sg13cmos5l_a221oi_1
*I *2782:Y O *D sg13cmos5l_nor2_1
*CAP
1 *2783:B2 0.000543993
2 *2782:Y 0.000581945
3 *117:10 0.00112594
4 *2783:B2 *2888:CLK 0
5 *2783:B2 *320:23 4.77425e-05
6 *2783:B2 *327:36 0
7 *117:10 *2752:B 0
8 *117:10 *2760:B1 0.000143889
9 *117:10 *2763:B1 0
10 *117:10 *198:10 0.000290544
11 *117:10 *225:12 0.000234224
12 *117:10 *249:36 0
13 *117:10 *252:40 0
14 *117:10 *310:8 0
15 *2754:A2 *117:10 0
16 *2763:A1 *117:10 0
17 *2763:A2 *117:10 0
18 *2782:B *117:10 0.000111914
19 *2783:B1 *2783:B2 1.54008e-05
20 *2787:C *2783:B2 0
21 *89:42 *2783:B2 0
22 *101:14 *117:10 0
23 *101:22 *117:10 0
*RES
1 *2782:Y *117:10 45.9843 
2 *117:10 *2783:B2 44.7792 
*END

*D_NET *118 0.000956457
*CONN
*I *2786:B I *D sg13cmos5l_nor3_1
*I *2784:Y O *D sg13cmos5l_a21oi_1
*CAP
1 *2786:B 0.000177958
2 *2784:Y 0.000122302
3 *118:10 0.000300261
4 *2786:B *2786:C 1.54008e-05
5 *118:10 *2784:B1 7.9225e-05
6 *118:10 *143:43 0.000181192
7 *118:10 *247:32 8.01178e-05
8 *101:22 *2786:B 0
*RES
1 *2784:Y *118:10 41.3802 
2 *118:10 *2786:B 41.6686 
*END

*D_NET *119 0.000726866
*CONN
*I *2786:C I *D sg13cmos5l_nor3_1
*I *2785:Y O *D sg13cmos5l_nor3_1
*CAP
1 *2786:C 0.000162291
2 *2785:Y 0.000162291
3 *2786:C *2785:A 0
4 *2786:C *310:18 0
5 *2785:B *2786:C 0.000177268
6 *2785:C *2786:C 0.000209615
7 *2786:B *2786:C 1.54008e-05
*RES
1 *2785:Y *2786:C 41.8334 
*END

*D_NET *120 0.00224868
*CONN
*I *2789:B I *D sg13cmos5l_nor3_1
*I *2787:Y O *D sg13cmos5l_nor3_1
*CAP
1 *2789:B 0
2 *2787:Y 0.000510664
3 *120:12 0.000510664
4 *120:12 *2762:B 1.54008e-05
5 *120:12 *143:43 0
6 *120:12 *160:18 0
7 *120:12 *197:33 0
8 *120:12 *247:32 0.000129592
9 *120:12 *320:23 0.000235656
10 *120:12 *327:36 0.000501131
11 *2763:A2 *120:12 0
12 *2787:C *120:12 0.000110935
13 *116:80 *120:12 0.00023464
*RES
1 *2787:Y *120:12 46.0564 
2 *120:12 *2789:B 40 
*END

*D_NET *121 0.00173662
*CONN
*I *2974:A I *D sg13cmos5l_dlygate4sd3_1
*I *2788:Y O *D sg13cmos5l_a21oi_1
*CAP
1 *2974:A 0.000795731
2 *2788:Y 0.000795731
3 *2974:A *2897:CLK 0
4 *2974:A *2981:A 0.000145162
5 *2974:A *161:23 0
6 *2974:A *161:70 0
7 *2974:A *253:48 0
8 *2974:A *321:14 0
*RES
1 *2788:Y *2974:A 48.1473 
*END

*D_NET *122 0.00261396
*CONN
*I *2792:B I *D sg13cmos5l_nor3_1
*I *2790:Y O *D sg13cmos5l_nor3_1
*CAP
1 *2792:B 0
2 *2790:Y 0.00104555
3 *122:16 0.00104555
4 *122:16 *2761:B 0
5 *122:16 *2773:B 0.000305181
6 *122:16 *2789:C 0
7 *122:16 *2790:A 0
8 *122:16 *2792:C 1.54008e-05
9 *122:16 *223:8 0
10 *122:16 *249:36 0
11 *122:16 *249:48 0
12 *122:16 *312:33 0
13 *122:16 *330:10 0.000111476
14 *2774:A2 *122:16 7.53965e-05
15 *116:55 *122:16 1.54008e-05
16 *116:59 *122:16 0
*RES
1 *2790:Y *122:16 30.9386 
2 *122:16 *2792:B 20 
*END

*D_NET *123 0.00138841
*CONN
*I *2964:A I *D sg13cmos5l_dlygate4sd3_1
*I *2791:Y O *D sg13cmos5l_a21oi_1
*CAP
1 *2964:A 3.4268e-05
2 *2791:Y 0.000237894
3 *123:8 0.000272162
4 *123:8 *246:63 0
5 *123:8 *246:74 0
6 *123:8 *246:89 0
7 *123:8 *330:41 0.000128663
8 *99:10 *123:8 0.00071542
*RES
1 *2791:Y *123:8 43.3166 
2 *123:8 *2964:A 40.3193 
*END

*D_NET *124 0.000727783
*CONN
*I *2795:B I *D sg13cmos5l_nor3_1
*I *2793:Y O *D sg13cmos5l_nor3_1
*CAP
1 *2795:B 0.000299978
2 *2793:Y 0.000299978
3 *2795:B *2793:A 0
4 *2795:B *2970:A 4.77425e-05
5 *2795:B *2971:A 0
6 *2795:B *197:22 0
7 *2795:B *214:12 0
8 *2795:B *323:10 0
9 *2795:B *329:20 0
10 *2795:B *331:10 0
11 *2793:C *2795:B 8.00842e-05
12 *116:55 *2795:B 0
*RES
1 *2793:Y *2795:B 42.3152 
*END

*D_NET *125 0.000920176
*CONN
*I *2959:A I *D sg13cmos5l_dlygate4sd3_1
*I *2794:Y O *D sg13cmos5l_a21oi_1
*CAP
1 *2959:A 0.000158039
2 *2794:Y 6.36775e-05
3 *125:8 0.000221716
4 *2959:A *2794:A2 0.000242018
5 *2959:A *2900:RESET_B 0
6 *2959:A *2961:A 0
7 *125:8 *159:16 0
8 *125:8 *224:20 0.000234726
*RES
1 *2794:Y *125:8 41.0918 
2 *125:8 *2959:A 41.6171 
*END

*D_NET *126 0.00191893
*CONN
*I *2967:A I *D sg13cmos5l_dlygate4sd3_1
*I *2796:Y O *D sg13cmos5l_a21oi_1
*CAP
1 *2967:A 0.000146348
2 *2796:Y 0.00051472
3 *126:10 0.000661067
4 *2967:A *2961:A 0.000241979
5 *2967:A *204:12 0
6 *126:10 *2796:A2 0
7 *126:10 *2796:B1 0.000306963
8 *126:10 *2800:B1 0
9 *126:10 *2901:RESET_B 0
10 *126:10 *2960:A 0
11 *126:10 *2968:A 0
12 *126:10 *204:12 0
13 *126:10 *210:8 0
14 *126:10 *246:44 4.78521e-05
*RES
1 *2796:Y *126:10 45.5208 
2 *126:10 *2967:A 41.6171 
*END

*D_NET *127 0.00146884
*CONN
*I *2798:C I *D sg13cmos5l_nor3_1
*I *2797:Y O *D sg13cmos5l_nor3_1
*CAP
1 *2798:C 0.000424283
2 *2797:Y 7.50219e-05
3 *127:8 0.000499305
4 *2798:C *2798:B 0
5 *2798:C *2800:B1 8.00842e-05
6 *2798:C *2962:A 0
7 *2798:C *215:10 0.000208956
8 *2798:C *246:29 0
9 *127:8 *331:20 0.000181192
10 *89:98 *2798:C 0
*RES
1 *2797:Y *127:8 40.8446 
2 *127:8 *2798:C 43.914 
*END

*D_NET *128 0.00130251
*CONN
*I *2801:B I *D sg13cmos5l_nor3_1
*I *2799:Y O *D sg13cmos5l_nor3_1
*CAP
1 *2801:B 0.000196539
2 *2799:Y 7.64516e-05
3 *128:8 0.000272991
4 *2801:B *2801:C 1.54008e-05
5 *2801:B *2902:D 0
6 *2801:B *333:38 0.000112663
7 *128:8 *306:24 0.000287672
8 *2771:A2 *2801:B 0
9 *89:98 *128:8 0.00034079
*RES
1 *2799:Y *128:8 41.5862 
2 *128:8 *2801:B 41.8334 
*END

*D_NET *129 0.000544538
*CONN
*I *2801:C I *D sg13cmos5l_nor3_1
*I *2800:Y O *D sg13cmos5l_a21oi_1
*CAP
1 *2801:C 2.89506e-05
2 *2800:Y 9.41761e-05
3 *129:8 0.000123127
4 *2801:C *2902:D 4.77425e-05
5 *129:8 *151:27 0
6 *2801:B *2801:C 1.54008e-05
7 *116:36 *129:8 0.000235141
*RES
1 *2800:Y *129:8 41.0918 
2 *129:8 *2801:C 40.3193 
*END

*D_NET *130 0.00045821
*CONN
*I *2804:B I *D sg13cmos5l_nor3_1
*I *2802:Y O *D sg13cmos5l_nor3_1
*CAP
1 *2804:B 0.000221405
2 *2802:Y 0.000221405
3 *2804:B *2804:C 0
4 *2804:B *250:31 0
5 *2802:B *2804:B 1.54008e-05
*RES
1 *2802:Y *2804:B 42.1836 
*END

*D_NET *131 0.00275384
*CONN
*I *3015:A I *D sg13cmos5l_dlygate4sd3_1
*I *2803:Y O *D sg13cmos5l_a21oi_1
*CAP
1 *3015:A 0.00016216
2 *2803:Y 0.00046439
3 *131:8 0.00062655
4 *3015:A *2972:A 0
5 *3015:A *306:14 0.000241088
6 *131:8 *2765:B 0.00012816
7 *131:8 *222:8 0.00034079
8 *131:8 *249:72 0
9 *131:8 *249:74 0
10 *131:8 *324:10 0.000288282
11 *131:8 *324:23 0.000214748
12 *131:8 *329:28 0.000287672
13 *2802:B *131:8 0
*RES
1 *2803:Y *131:8 45.7886 
2 *131:8 *3015:A 41.6171 
*END

*D_NET *132 0.00698903
*CONN
*I *2846:S I *D sg13cmos5l_mux2_1
*I *2921:A I *D sg13cmos5l_buf_1
*I *2805:Y O *D sg13cmos5l_nand2_1
*CAP
1 *2846:S 0
2 *2921:A 0.000738142
3 *2805:Y 0.000722916
4 *132:23 0.000905582
5 *132:12 0.00179863
6 *132:8 0.000877816
7 *2921:A *157:104 0
8 *2921:A *157:108 0
9 *2921:A *157:110 0
10 *2921:A *164:8 0.000209856
11 *132:8 *2805:A 7.52149e-05
12 *132:8 *148:21 0
13 *132:8 *157:100 0
14 *132:8 *157:156 0
15 *132:12 *157:104 0
16 *132:23 *2830:A0 0.000607236
17 *132:23 *2846:A0 0.000340894
18 *132:23 *148:21 0
19 *132:23 *159:78 0
20 *132:23 *259:44 0.000712747
*RES
1 *2805:Y *132:8 42.455 
2 *132:8 *132:12 21.6171 
3 *132:12 *2921:A 27.6735 
4 *132:12 *132:23 30.7326 
5 *132:23 *2846:S 40 
*END

*D_NET *133 0.0160241
*CONN
*I *2812:A2 I *D sg13cmos5l_a21o_1
*I *2818:A2 I *D sg13cmos5l_a21o_1
*I *2810:S I *D sg13cmos5l_mux2_1
*I *2820:A2 I *D sg13cmos5l_a21o_1
*I *2822:A2 I *D sg13cmos5l_a21o_1
*I *2816:A2 I *D sg13cmos5l_a21o_1
*I *2824:A2 I *D sg13cmos5l_a21o_1
*I *2814:A2 I *D sg13cmos5l_a21o_1
*I *2809:Y O *D sg13cmos5l_nor2b_1
*CAP
1 *2812:A2 0.000222586
2 *2818:A2 0.000404984
3 *2810:S 0
4 *2820:A2 0
5 *2822:A2 0
6 *2816:A2 1.22778e-05
7 *2824:A2 3.06229e-05
8 *2814:A2 0.000315224
9 *2809:Y 0.000144964
10 *133:106 0.000127538
11 *133:98 0.000486265
12 *133:94 0.00112587
13 *133:85 0.000410806
14 *133:70 0.00115963
15 *133:62 0.00126062
16 *133:49 0.000479597
17 *133:26 0.00100572
18 *133:24 0.00127002
19 *133:8 0.00123414
20 *2812:A2 *2812:A1 1.69409e-05
21 *2812:A2 *2812:B1 1.69409e-05
22 *2812:A2 *249:84 0
23 *2812:A2 *251:27 0
24 *2814:A2 *143:24 0
25 *2814:A2 *235:29 0
26 *2814:A2 *238:14 0
27 *2814:A2 *265:12 5.78169e-05
28 *2818:A2 *2818:B1 0
29 *2818:A2 *158:10 0.000698895
30 *2818:A2 *158:12 0.000396105
31 *2818:A2 *237:10 0.000395396
32 *2818:A2 *288:8 0.000425829
33 *2824:A2 *2906:A 4.92826e-05
34 *2824:A2 *276:24 0
35 *133:8 *2823:B_N 0
36 *133:8 *241:12 0
37 *133:8 *249:84 0
38 *133:24 *2780:A 0
39 *133:24 *2876:CLK 0
40 *133:24 *2877:RESET_B 0.000237611
41 *133:24 *135:14 0
42 *133:24 *233:6 0
43 *133:24 *236:8 0.000102272
44 *133:24 *251:27 0
45 *133:26 *158:33 0
46 *133:26 *158:37 0
47 *133:26 *236:16 0
48 *133:26 *238:14 0
49 *133:49 *233:6 0.000468424
50 *133:49 *236:16 0
51 *133:49 *236:22 0
52 *133:49 *240:8 0.00012816
53 *133:49 *278:10 0.00012816
54 *133:49 *335:10 0
55 *133:62 *158:33 0
56 *133:62 *238:14 0
57 *133:70 *2816:A1 0.000725226
58 *133:70 *2882:CLK 0
59 *133:70 *2904:RESET_B 0
60 *133:70 *2904:D 0
61 *133:70 *236:8 0
62 *133:70 *239:16 0
63 *133:85 *2816:B1 0
64 *133:85 *298:20 0
65 *133:94 *158:12 0.000478215
66 *133:94 *158:14 0.000426846
67 *133:94 *158:16 0.000290261
68 *133:94 *238:14 0
69 *133:94 *288:8 0.000287759
70 *133:98 *2820:A1 0
71 *133:98 *2879:D 0.000143799
72 *133:98 *137:8 0
73 *133:98 *251:33 0
74 *133:98 *251:39 0
75 *133:98 *327:20 1.54008e-05
76 *133:106 *2820:A1 1.54556e-05
77 *133:106 *2820:B1 0
78 *133:106 *137:8 8.1756e-05
79 *133:106 *250:75 0.000181192
80 *3008:A *133:70 0
81 *59:10 *2818:A2 0
82 *115:34 *133:24 0.000565449
*RES
1 *2809:Y *133:8 41.339 
2 *133:8 *133:24 48.9937 
3 *133:24 *133:26 2.0806 
4 *133:26 *2814:A2 43.1363 
5 *133:26 *133:49 44.7174 
6 *133:49 *2824:A2 40.3296 
7 *133:24 *133:62 1.6583 
8 *133:62 *133:70 27.725 
9 *133:70 *2816:A2 20.1133 
10 *133:70 *133:85 44.1715 
11 *133:85 *2822:A2 20 
12 *133:62 *133:94 5.8607 
13 *133:94 *133:98 23.3475 
14 *133:98 *133:106 41.3905 
15 *133:106 *2820:A2 20 
16 *133:98 *2810:S 20 
17 *133:94 *2818:A2 46.7001 
18 *133:8 *2812:A2 42.1939 
*END

*D_NET *134 0.00173004
*CONN
*I *2812:B1 I *D sg13cmos5l_a21o_1
*I *2811:Y O *D sg13cmos5l_nor2b_1
*CAP
1 *2812:B1 0.000487491
2 *2811:Y 0.000233633
3 *134:8 0.000721125
4 *2812:B1 *2803:B1 0.000177662
5 *2812:B1 *2812:A1 1.54556e-05
6 *2812:B1 *2903:D 0
7 *2812:B1 *250:31 0
8 *2812:B1 *250:37 0
9 *2812:B1 *300:10 0
10 *134:8 *2877:RESET_B 0
11 *134:8 *241:53 0
12 *134:8 *241:66 0
13 *134:8 *250:31 0
14 *134:8 *250:37 0
15 *134:8 *300:10 0
16 *2812:A2 *2812:B1 1.69409e-05
17 *3018:A *2812:B1 7.77311e-05
18 *115:34 *2812:B1 0
*RES
1 *2811:Y *134:8 42.575 
2 *134:8 *2812:B1 45.1603 
*END

*D_NET *135 0.00319676
*CONN
*I *2814:B1 I *D sg13cmos5l_a21o_1
*I *2813:Y O *D sg13cmos5l_nor2b_1
*CAP
1 *2814:B1 0.000492362
2 *2813:Y 0.000694188
3 *135:14 0.00118655
4 *2814:B1 *143:24 0
5 *2814:B1 *158:37 0
6 *2814:B1 *235:29 0
7 *2814:B1 *265:12 0.000242138
8 *135:14 *2780:A 0.000177373
9 *135:14 *2877:RESET_B 0
10 *135:14 *241:18 0.000404147
11 *57:10 *2814:B1 0
12 *115:34 *135:14 0
13 *133:24 *135:14 0
*RES
1 *2813:Y *135:14 47.2409 
2 *135:14 *2814:B1 45.1809 
*END

*D_NET *136 0.00309465
*CONN
*I *2816:B1 I *D sg13cmos5l_a21o_1
*I *2815:Y O *D sg13cmos5l_nor2b_1
*CAP
1 *2816:B1 0.000252893
2 *2815:Y 0.000931329
3 *136:8 0.00118422
4 *2816:B1 *298:20 0
5 *136:8 *2822:A1 0
6 *136:8 *2822:B1 0
7 *136:8 *2878:CLK 0
8 *136:8 *2881:CLK 0
9 *136:8 *2882:D 0.000242028
10 *136:8 *239:10 0
11 *136:8 *250:66 0.000242154
12 *136:8 *289:10 0.000242028
13 *2821:A *136:8 0
14 *3008:A *136:8 0
15 *58:10 *136:8 0
16 *133:85 *2816:B1 0
*RES
1 *2815:Y *136:8 49.3159 
2 *136:8 *2816:B1 42.3278 
*END

*D_NET *137 0.00276051
*CONN
*I *2818:B1 I *D sg13cmos5l_a21o_1
*I *2817:Y O *D sg13cmos5l_nor2b_1
*CAP
1 *2818:B1 0.000871091
2 *2817:Y 0.000395938
3 *137:8 0.00126703
4 *2818:B1 *158:10 0
5 *2818:B1 *158:12 0
6 *2818:B1 *237:10 0
7 *2818:B1 *250:75 0
8 *137:8 *2817:A 0.000144691
9 *137:8 *2820:A1 0
10 *137:8 *2820:B1 0
11 *137:8 *327:20 0
12 *2818:A2 *2818:B1 0
13 *59:10 *2818:B1 0
14 *133:98 *137:8 0
15 *133:106 *137:8 8.1756e-05
*RES
1 *2817:Y *137:8 43.5638 
2 *137:8 *2818:B1 49.3524 
*END

*D_NET *138 0.00230778
*CONN
*I *2820:B1 I *D sg13cmos5l_a21o_1
*I *2819:Y O *D sg13cmos5l_nor2b_1
*CAP
1 *2820:B1 0.000135095
2 *2819:Y 0.000906242
3 *138:8 0.00104134
4 *2820:B1 *2820:A1 1.54556e-05
5 *2820:B1 *330:28 0.000209648
6 *138:8 *2819:A 0
7 *138:8 *157:27 0
8 *138:8 *159:52 0
9 *138:8 *196:10 0
10 *133:106 *2820:B1 0
11 *137:8 *2820:B1 0
*RES
1 *2819:Y *138:8 49.7438 
2 *138:8 *2820:B1 41.4008 
*END

*D_NET *139 0.00109673
*CONN
*I *2822:B1 I *D sg13cmos5l_a21o_1
*I *2821:Y O *D sg13cmos5l_nor2b_1
*CAP
1 *2822:B1 0.00052441
2 *2821:Y 0.00052441
3 *2822:B1 *2822:A1 4.79124e-05
4 *2822:B1 *2881:CLK 0
5 *2822:B1 *333:22 0
6 *61:10 *2822:B1 0
7 *136:8 *2822:B1 0
*RES
1 *2821:Y *2822:B1 45.356 
*END

*D_NET *140 0.00304243
*CONN
*I *2824:B1 I *D sg13cmos5l_a21o_1
*I *2823:Y O *D sg13cmos5l_nor2b_1
*CAP
1 *2824:B1 0.000173381
2 *2823:Y 0.000619099
3 *140:10 0.00079248
4 *2824:B1 *2906:A 0
5 *2824:B1 *143:24 0
6 *2824:B1 *276:24 0.000274633
7 *140:10 *2823:A 0.000144942
8 *140:10 *2877:CLK 0
9 *140:10 *2904:CLK 0
10 *140:10 *143:24 0.000856699
11 *140:10 *233:6 0
12 *140:10 *238:14 0.000181192
13 *62:8 *140:10 0
*RES
1 *2823:Y *140:10 46.5714 
2 *140:10 *2824:B1 41.8334 
*END

*D_NET *141 0.0149311
*CONN
*I *2830:S I *D sg13cmos5l_mux2_1
*I *2831:S I *D sg13cmos5l_mux2_1
*I *2832:S I *D sg13cmos5l_mux2_1
*I *2833:S I *D sg13cmos5l_mux2_1
*I *2837:S I *D sg13cmos5l_mux2_1
*I *2834:S I *D sg13cmos5l_mux2_1
*I *2836:S I *D sg13cmos5l_mux2_1
*I *2835:S I *D sg13cmos5l_mux2_1
*I *2829:Y O *D sg13cmos5l_nand2b_1
*CAP
1 *2830:S 0.000219064
2 *2831:S 0
3 *2832:S 0
4 *2833:S 0
5 *2837:S 0.000129724
6 *2834:S 5.36606e-05
7 *2836:S 0.000798253
8 *2835:S 0.000175446
9 *2829:Y 0.000590147
10 *141:45 0.00106042
11 *141:43 0.000661056
12 *141:32 0.000741381
13 *141:30 0.000644463
14 *141:20 0.00084837
15 *141:14 0.000845486
16 *141:10 0.00207624
17 *141:8 0.00204886
18 *2830:S *2830:A0 0
19 *2830:S *2852:CLK 8.00842e-05
20 *2830:S *2908:adc_ref[6] 0
21 *2830:S *2908:adc_ref[7] 0
22 *2830:S *164:83 1.54008e-05
23 *2834:S *257:17 0
24 *2835:S *2863:RESET_B 0
25 *2836:S *164:22 0
26 *2836:S *257:23 0
27 *2836:S *257:31 0
28 *2836:S *257:45 0
29 *2836:S *265:22 0.000128576
30 *2837:S *2842:S 7.92644e-05
31 *2837:S *162:10 0
32 *2837:S *163:10 0.000208615
33 *141:8 *2805:A 0
34 *141:8 *2829:B 0
35 *141:8 *224:24 0
36 *141:10 *2908:adc_ref[6] 0
37 *141:10 *2908:adc_ref[7] 0
38 *141:10 *150:12 0
39 *141:10 *151:32 0.00102663
40 *141:14 *164:83 0
41 *141:14 *245:26 0.000680205
42 *141:14 *270:23 0.000112535
43 *141:20 *2831:A0 0
44 *141:20 *164:72 0
45 *141:20 *164:83 0
46 *141:20 *245:26 1.54008e-05
47 *141:20 *245:41 0.0001122
48 *141:20 *256:26 0
49 *141:20 *258:22 0
50 *141:20 *258:30 0
51 *141:30 *2832:A0 0
52 *141:30 *2862:RESET_B 5.30319e-05
53 *141:30 *2933:A 0
54 *141:30 *164:55 0
55 *141:30 *164:72 0
56 *141:30 *242:12 0
57 *141:30 *255:10 0.000449343
58 *141:30 *255:14 4.77425e-05
59 *141:30 *256:34 0
60 *141:30 *258:30 0
61 *141:30 *260:28 0
62 *141:30 *274:25 0.000554994
63 *141:32 *2863:RESET_B 0
64 *141:32 *2863:CLK 0
65 *141:32 *242:12 0
66 *141:32 *260:28 0
67 *141:43 *2842:S 0
68 *141:43 *164:55 0
69 *141:43 *242:29 0
70 *141:43 *273:10 0.000213056
71 *141:45 *257:45 0
72 *141:45 *273:10 0.000181192
73 *2857:D *2836:S 0
74 *2994:A *2834:S 8.02598e-05
*RES
1 *2829:Y *141:8 45.9431 
2 *141:8 *141:10 15.6766 
3 *141:10 *141:14 24.6453 
4 *141:14 *141:20 4.512 
5 *141:20 *141:30 45.5002 
6 *141:30 *141:32 2.6986 
7 *141:32 *2835:S 21.4008 
8 *141:32 *141:43 23.3166 
9 *141:43 *141:45 2.575 
10 *141:45 *2836:S 46.6056 
11 *141:45 *2834:S 40.5356 
12 *141:43 *2837:S 41.4008 
13 *141:30 *2833:S 20 
14 *141:20 *2832:S 20 
15 *141:14 *2831:S 20 
16 *141:10 *2830:S 42.0909 
*END

*D_NET *142 0.0114623
*CONN
*I *2742:A I *D sg13cmos5l_inv_1
*I *2908:adc_comp O *D analogue_interface
*CAP
1 *2742:A 5.17261e-05
2 *2908:adc_comp 9.54186e-05
3 *142:9 0.00563573
4 *142:7 0.00567943
5 *142:9 *145:23 0
*RES
1 *2908:adc_comp *142:7 1.31068 
2 *142:7 *142:9 70.555 
3 *142:9 *2742:A 40.5356 
*END

*D_NET *143 0.0474476
*CONN
*I *2908:adc_hold I *D analogue_interface
*I *2906:A I *D sg13cmos5l_buf_1
*I *2743:Y O *D sg13cmos5l_inv_1
*CAP
1 *2908:adc_hold 0.000112515
2 *2906:A 0.000757825
3 *2743:Y 0.00021285
4 *143:49 0.000886184
5 *143:43 0.00800449
6 *143:41 0.00772926
7 *143:24 0.00347056
8 *143:10 0.00342403
9 *2906:A *2904:CLK 0
10 *2906:A *3043:A 3.86039e-05
11 *2906:A *3047:A 0
12 *2906:A *233:6 0
13 *2906:A *276:24 0
14 *2906:A *278:10 0.000209621
15 *143:10 *213:16 0.000340704
16 *143:10 *253:19 7.51285e-05
17 *143:10 *260:12 0
18 *143:10 *265:12 0
19 *143:24 *2823:A 0
20 *143:24 *2823:B_N 0
21 *143:24 *2893:D 0
22 *143:24 *2895:RESET_B 0
23 *143:24 *2929:A 0.000175966
24 *143:24 *202:20 0.000533139
25 *143:24 *213:16 0.000240569
26 *143:24 *241:12 0
27 *143:24 *241:18 0
28 *143:24 *248:10 4.79124e-05
29 *143:24 *253:8 4.72458e-05
30 *143:24 *254:12 0
31 *143:24 *254:22 0
32 *143:24 *265:12 0
33 *143:24 *276:24 0
34 *143:24 *278:10 0
35 *143:41 *213:16 7.51285e-05
36 *143:41 *248:46 0.000342043
37 *143:41 *253:19 0.000694957
38 *143:43 *2787:A 7.65627e-05
39 *143:43 *2908:adc_ref[1] 0
40 *143:43 *144:8 0.000344195
41 *143:43 *144:19 0.0145818
42 *143:43 *160:18 0
43 *143:43 *160:22 0
44 *143:43 *161:8 0
45 *143:43 *161:12 0
46 *143:43 *247:32 0
47 *143:43 *252:18 0.000340795
48 *143:43 *253:33 0.000557251
49 *143:43 *256:10 0
50 *143:43 *256:12 0
51 *143:43 *256:64 0
52 *143:43 *260:14 0
53 *143:43 *307:10 0
54 *143:43 *321:25 0.000983416
55 *143:43 *321:27 0.0013587
56 *143:43 *327:36 0
57 *143:43 *329:8 0.000554973
58 *2743:A *143:10 0.000143959
59 *2751:A *143:24 0
60 *2777:A *143:24 0
61 *2814:A2 *143:24 0
62 *2814:B1 *143:24 0
63 *2824:A2 *2906:A 4.92826e-05
64 *2824:B1 *2906:A 0
65 *2824:B1 *143:24 0
66 *51:10 *143:43 0
67 *94:12 *143:24 0
68 *118:10 *143:43 0.000181192
69 *120:12 *143:43 0
70 *140:10 *143:24 0.000856699
*RES
1 *2743:Y *143:10 42.5544 
2 *143:10 *143:24 49.3241 
3 *143:24 *2906:A 27.4063 
4 *143:10 *143:41 45.5826 
5 *143:41 *143:43 89.095 
6 *143:43 *143:49 49.4039 
7 *143:49 *2908:adc_hold 1.4111 
*END

*D_NET *144 0.0243071
*CONN
*I *2908:adc_ref[0] I *D analogue_interface
*I *2981:A I *D sg13cmos5l_dlygate4sd3_1
*I *2896:Q O *D sg13cmos5l_dfrbpq_1
*CAP
1 *2908:adc_ref[0] 9.69522e-05
2 *2981:A 0.000248024
3 *2896:Q 0.00011415
4 *144:19 0.00424808
5 *144:8 0.0045133
6 *2908:adc_ref[0] *2908:adc_ref[1] 0
7 *2981:A *145:23 0
8 *2981:A *161:70 1.54008e-05
9 *144:8 *161:8 0
10 *144:8 *260:14 0
11 *144:19 *2908:adc_ref[1] 0
12 *144:19 *260:14 0
13 *144:19 *260:58 0
14 *2974:A *2981:A 0.000145162
15 *143:43 *144:8 0.000344195
16 *143:43 *144:19 0.0145818
*RES
1 *2896:Q *144:8 41.5862 
2 *144:8 *2981:A 42.6986 
3 *144:8 *144:19 67.5886 
4 *144:19 *2908:adc_ref[0] 1.31068 
*END

*D_NET *145 0.0132359
*CONN
*I *2980:A I *D sg13cmos5l_dlygate4sd3_1
*I *2908:adc_ref[1] I *D analogue_interface
*I *2897:Q O *D sg13cmos5l_dfrbpq_1
*CAP
1 *2980:A 8.35885e-05
2 *2908:adc_ref[1] 0.0054134
3 *2897:Q 0.000816136
4 *145:23 0.000899724
5 *145:6 0.0054134
6 *2908:adc_ref[1] *217:8 0
7 *2908:adc_ref[1] *234:18 0
8 *2908:adc_ref[1] *245:56 0
9 *2908:adc_ref[1] *256:10 0
10 *2908:adc_ref[1] *256:12 0
11 *2908:adc_ref[1] *256:64 0
12 *145:23 *2913:A 0
13 *145:23 *157:77 0
14 *145:23 *161:70 0
15 *145:23 *226:8 0.000609685
16 *145:23 *260:14 0
17 *2908:adc_ref[0] *2908:adc_ref[1] 0
18 *2981:A *145:23 0
19 *88:8 *2980:A 0
20 *89:8 *145:23 0
21 *142:9 *145:23 0
22 *143:43 *2908:adc_ref[1] 0
23 *144:19 *2908:adc_ref[1] 0
*RES
1 *2897:Q *145:6 40 
2 *145:6 *2908:adc_ref[1] 67.4135 
3 *2897:Q *145:23 49.7541 
4 *145:23 *2980:A 40.7519 
*END

*D_NET *146 0.014578
*CONN
*I *2908:adc_ref[2] I *D analogue_interface
*I *2973:A I *D sg13cmos5l_dlygate4sd3_1
*I *2898:Q O *D sg13cmos5l_dfrbpq_1
*CAP
1 *2908:adc_ref[2] 9.54186e-05
2 *2973:A 0.000283868
3 *2898:Q 0
4 *146:19 0.00578146
5 *146:6 0.00596991
6 *2908:adc_ref[2] *2908:adc_ref[3] 0
7 *2973:A *147:23 0
8 *2973:A *157:77 0
9 *2973:A *212:44 0
10 *2973:A *245:20 0.000128293
11 *146:19 *2908:adc_ref[3] 0
12 *146:19 *2918:A 0
13 *146:19 *147:23 0
14 *146:19 *165:19 0
15 *146:19 *245:20 0.00231905
16 *146:19 *245:22 0
17 *146:19 *245:56 0
*RES
1 *2898:Q *146:6 40 
2 *146:6 *2973:A 42.7398 
3 *146:6 *146:19 63.3862 
4 *146:19 *2908:adc_ref[2] 1.31068 
*END

*D_NET *147 0.0127389
*CONN
*I *2908:adc_ref[3] I *D analogue_interface
*I *2963:A I *D sg13cmos5l_dlygate4sd3_1
*I *2899:Q O *D sg13cmos5l_dfrbpq_1
*CAP
1 *2908:adc_ref[3] 9.82105e-05
2 *2963:A 2.52209e-05
3 *2899:Q 0.000270057
4 *147:23 0.00597738
5 *147:21 0.00597597
6 *147:10 0.000392076
7 *2908:adc_ref[3] *2908:adc_ref[4] 0
8 *147:10 *157:17 0
9 *147:10 *157:21 0
10 *147:10 *212:44 0
11 *147:21 *157:17 0
12 *147:21 *157:77 0
13 *147:21 *212:44 0
14 *147:23 *2918:A 0
15 *147:23 *157:11 0
16 *147:23 *157:100 0
17 *147:23 *157:156 0
18 *147:23 *165:19 0
19 *147:23 *245:20 0
20 *2908:adc_ref[2] *2908:adc_ref[3] 0
21 *2973:A *147:23 0
22 *146:19 *2908:adc_ref[3] 0
23 *146:19 *147:23 0
*RES
1 *2899:Q *147:10 22.5956 
2 *147:10 *2963:A 20.3502 
3 *147:10 *147:21 20.5986 
4 *147:21 *147:23 65.3638 
5 *147:23 *2908:adc_ref[3] 1.31068 
*END

*D_NET *148 0.0151548
*CONN
*I *2908:adc_ref[4] I *D analogue_interface
*I *2958:A I *D sg13cmos5l_dlygate4sd3_1
*I *2900:Q O *D sg13cmos5l_dfrbpq_1
*CAP
1 *2908:adc_ref[4] 0.000235171
2 *2958:A 0.000136173
3 *2900:Q 0.000253312
4 *148:21 0.00657834
5 *148:8 0.00673265
6 *2908:adc_ref[4] *2908:adc_ref[5] 8.00842e-05
7 *2958:A *159:10 0
8 *2958:A *224:20 0
9 *148:8 *157:21 0
10 *148:21 *2805:A 0
11 *148:21 *2908:adc_ref[6] 0
12 *148:21 *159:10 0
13 *148:21 *159:78 0
14 *148:21 *193:8 0
15 *148:21 *224:20 0
16 *148:21 *228:24 0
17 *148:21 *259:44 0.00113908
18 *2908:adc_ref[3] *2908:adc_ref[4] 0
19 *132:8 *148:21 0
20 *132:23 *148:21 0
*RES
1 *2900:Q *148:8 42.4823 
2 *148:8 *2958:A 41.3802 
3 *148:8 *148:21 67.0942 
4 *148:21 *2908:adc_ref[4] 42.7192 
*END

*D_NET *149 0.0187037
*CONN
*I *2908:adc_ref[5] I *D analogue_interface
*I *2966:A I *D sg13cmos5l_dlygate4sd3_1
*I *2901:Q O *D sg13cmos5l_dfrbpq_1
*CAP
1 *2908:adc_ref[5] 0.000552319
2 *2966:A 0.000469794
3 *2901:Q 0
4 *149:19 0.00636888
5 *149:6 0.00628636
6 *2966:A *2961:A 4.77866e-05
7 *2966:A *150:6 0.000371948
8 *2966:A *151:27 0.000822643
9 *2966:A *157:27 0
10 *2966:A *159:16 0
11 *2966:A *159:22 0
12 *149:19 *2908:adc_ref[7] 0
13 *149:19 *151:27 0.0037039
14 *149:19 *151:32 0
15 *149:19 *157:27 0
16 *149:19 *157:39 0
17 *149:19 *164:83 0
18 *149:19 *166:26 0
19 *149:19 *258:62 0
20 *2908:adc_ref[4] *2908:adc_ref[5] 8.00842e-05
*RES
1 *2901:Q *149:6 40 
2 *149:6 *2966:A 46.5096 
3 *149:6 *149:19 69.8134 
4 *149:19 *2908:adc_ref[5] 46.2109 
*END

*D_NET *150 0.023392
*CONN
*I *2961:A I *D sg13cmos5l_dlygate4sd3_1
*I *2908:adc_ref[6] I *D analogue_interface
*I *2902:Q O *D sg13cmos5l_dfrbpq_1
*CAP
1 *2961:A 0.000420402
2 *2908:adc_ref[6] 0.00257383
3 *2902:Q 0.000387078
4 *150:12 0.00538521
5 *150:8 0.00281138
6 *150:6 0.00080748
7 *2908:adc_ref[6] *2846:A0 0
8 *2908:adc_ref[6] *2908:adc_ref[7] 0
9 *2908:adc_ref[6] *159:78 0
10 *2908:adc_ref[6] *165:29 0
11 *2908:adc_ref[6] *193:8 0
12 *2908:adc_ref[6] *258:10 0.000393822
13 *2908:adc_ref[6] *259:44 0
14 *2908:adc_ref[6] *270:23 0
15 *2961:A *2900:RESET_B 0
16 *2961:A *204:12 0
17 *150:6 *2819:B_N 0
18 *150:6 *2901:RESET_B 0
19 *150:6 *2901:D 0
20 *150:6 *159:22 0
21 *150:6 *204:12 0
22 *150:12 *151:27 0
23 *150:12 *151:32 0
24 *150:12 *159:10 0.00165015
25 *150:12 *159:16 0.000663131
26 *150:12 *159:78 0.00763785
27 *150:12 *203:10 0
28 *2830:S *2908:adc_ref[6] 0
29 *2959:A *2961:A 0
30 *2966:A *2961:A 4.77866e-05
31 *2966:A *150:6 0.000371948
32 *2967:A *2961:A 0.000241979
33 *141:10 *2908:adc_ref[6] 0
34 *141:10 *150:12 0
35 *148:21 *2908:adc_ref[6] 0
*RES
1 *2902:Q *150:6 23.9964 
2 *150:6 *150:8 20 
3 *150:8 *150:12 47.3903 
4 *150:12 *2908:adc_ref[6] 28.1113 
5 *150:6 *2961:A 24.5629 
*END

*D_NET *151 0.0260442
*CONN
*I *2908:adc_ref[7] I *D analogue_interface
*I *2803:B1 I *D sg13cmos5l_a21oi_1
*I *2903:Q O *D sg13cmos5l_dfrbpq_1
*CAP
1 *2908:adc_ref[7] 0.00245492
2 *2803:B1 0.00084424
3 *2903:Q 0.000166052
4 *151:32 0.00455476
5 *151:27 0.00399441
6 *151:8 0.00290487
7 *2803:B1 *2745:A 1.54008e-05
8 *2803:B1 *2804:C 0
9 *2803:B1 *2813:B_N 0
10 *2803:B1 *2902:RESET_B 0
11 *2803:B1 *2903:D 0
12 *2803:B1 *250:31 0
13 *2803:B1 *251:27 0
14 *2803:B1 *297:8 0.000289113
15 *2803:B1 *333:8 0.000931996
16 *2908:adc_ref[7] *164:83 0.00156499
17 *2908:adc_ref[7] *165:29 0.00145887
18 *151:8 *2902:D 0
19 *151:8 *159:37 0
20 *151:8 *251:33 0
21 *151:8 *327:20 0
22 *151:27 *2800:B1 0
23 *151:27 *2819:B_N 0.000715662
24 *151:27 *2902:RESET_B 0
25 *151:27 *2903:CLK 0
26 *151:27 *246:44 0
27 *151:27 *332:8 0.000128662
28 *2812:B1 *2803:B1 0.000177662
29 *2830:S *2908:adc_ref[7] 0
30 *2908:adc_ref[6] *2908:adc_ref[7] 0
31 *2966:A *151:27 0.000822643
32 *116:36 *151:27 0.000289417
33 *129:8 *151:27 0
34 *141:10 *2908:adc_ref[7] 0
35 *141:10 *151:32 0.00102663
36 *149:19 *2908:adc_ref[7] 0
37 *149:19 *151:27 0.0037039
38 *149:19 *151:32 0
39 *150:12 *151:27 0
40 *150:12 *151:32 0
*RES
1 *2903:Q *151:8 41.4008 
2 *151:8 *2803:B1 49.9395 
3 *151:8 *151:27 29.1799 
4 *151:27 *151:32 26.2753 
5 *151:32 *2908:adc_ref[7] 28.0366 
*END

*D_NET *152 0.000997823
*CONN
*I *2907:A I *D sg13cmos5l_buf_1
*I *2904:Q O *D sg13cmos5l_dfrbpq_1
*CAP
1 *2907:A 0
2 *2904:Q 0.000394387
3 *152:10 0.000394387
4 *152:10 *238:20 0
5 *152:10 *298:20 0
6 uio_out[4] *152:10 0
7 uio_out[7] *152:10 0.000209049
*RES
1 *2904:Q *152:10 44.223 
2 *152:10 *2907:A 40 
*END

*D_NET *153 0.00195885
*CONN
*I *2908:sh_cap_en[0] I *D analogue_interface
*I *3009:A I *D sg13cmos5l_dlygate4sd3_1
*I *2883:Q O *D sg13cmos5l_dfrbpq_1
*CAP
1 *2908:sh_cap_en[0] 0.00046269
2 *3009:A 0.0004562
3 *2883:Q 6.05374e-05
4 *153:8 0.000979427
5 *3009:A *165:45 0
6 *3009:A *165:52 0
*RES
1 *2883:Q *153:8 40.7519 
2 *153:8 *3009:A 45.2118 
3 *153:8 *2908:sh_cap_en[0] 6.11048 
*END

*D_NET *154 0.00172195
*CONN
*I *2908:sh_cap_en[1] I *D analogue_interface
*I *3010:A I *D sg13cmos5l_dlygate4sd3_1
*I *2884:Q O *D sg13cmos5l_dfrbpq_1
*CAP
1 *2908:sh_cap_en[1] 0.000431301
2 *3010:A 0.000373598
3 *2884:Q 5.60732e-05
4 *154:8 0.000860973
5 *3010:A *165:52 0
6 *3010:A *165:59 0
*RES
1 *2884:Q *154:8 40.7519 
2 *154:8 *3010:A 44.223 
3 *154:8 *2908:sh_cap_en[1] 5.6135 
*END

*D_NET *155 0.00174263
*CONN
*I *2908:sh_cap_en[2] I *D analogue_interface
*I *3011:A I *D sg13cmos5l_dlygate4sd3_1
*I *2885:Q O *D sg13cmos5l_dfrbpq_1
*CAP
1 *2908:sh_cap_en[2] 0.000430967
2 *3011:A 0.000386228
3 *2885:Q 5.4121e-05
4 *155:8 0.000871316
5 *3011:A *2886:CLK 0
6 *3011:A *165:59 0
*RES
1 *2885:Q *155:8 40.9682 
2 *155:8 *3011:A 44.4393 
3 *155:8 *2908:sh_cap_en[2] 5.6135 
*END

*D_NET *156 0.00170229
*CONN
*I *2908:sh_cap_en[3] I *D analogue_interface
*I *3012:A I *D sg13cmos5l_dlygate4sd3_1
*I *2886:Q O *D sg13cmos5l_dfrbpq_1
*CAP
1 *2908:sh_cap_en[3] 0.000562871
2 *3012:A 0.000288274
3 *2886:Q 0
4 *156:4 0.000851145
5 *3012:A *2886:CLK 0
*RES
1 *2886:Q *156:4 20 
2 *156:4 *3012:A 23.3578 
3 *156:4 *2908:sh_cap_en[3] 27.0143 
*END

*D_NET *157 0.0209619
*CONN
*I *2917:A I *D sg13cmos5l_buf_8
*I *2916:A I *D sg13cmos5l_buf_8
*I *2914:A I *D sg13cmos5l_buf_8
*I *2915:A I *D sg13cmos5l_buf_8
*I *2913:A I *D sg13cmos5l_buf_8
*I *2912:A I *D sg13cmos5l_buf_8
*I *2911:A I *D sg13cmos5l_buf_8
*I *2910:A I *D sg13cmos5l_buf_8
*I *2909:X O *D sg13cmos5l_buf_8
*CAP
1 *2917:A 8.33706e-05
2 *2916:A 0
3 *2914:A 0
4 *2915:A 0.000180448
5 *2913:A 0.000107781
6 *2912:A 0.000103893
7 *2911:A 2.88212e-05
8 *2910:A 9.63142e-05
9 *2909:X 4.8276e-05
10 *157:156 0.000329047
11 *157:128 0.000219697
12 *157:123 0.000110195
13 *157:121 0.000212506
14 *157:115 0.000387518
15 *157:110 0.000329774
16 *157:108 0.000196401
17 *157:104 0.000899589
18 *157:100 0.00298058
19 *157:95 0.00199618
20 *157:77 0.000789162
21 *157:59 0.00014505
22 *157:55 0.00151061
23 *157:39 0.00019846
24 *157:27 0.000992756
25 *157:21 0.00194723
26 *157:17 0.00257699
27 *157:11 0.00269953
28 *157:6 0.00179176
29 *2910:A *2819:A 0
30 *2910:A *2901:RESET_B 0
31 *2910:A *159:37 0
32 *2912:A *215:28 0
33 *2912:A *312:6 0
34 *2915:A *164:8 0
35 *157:11 *246:99 0
36 *157:17 *2899:CLK 0
37 *157:17 *246:99 0
38 *157:21 *2899:CLK 0
39 *157:27 *2901:RESET_B 0
40 *157:27 *159:22 0
41 *157:27 *159:37 0
42 *157:55 *2772:B 0
43 *157:55 *228:24 0
44 *157:55 *249:56 0
45 *157:55 *323:10 0
46 *157:55 *323:25 0
47 *157:55 *329:20 0
48 *157:59 *215:28 0
49 *157:77 *2898:CLK 0
50 *157:77 *2899:CLK 0
51 *157:77 *161:70 0
52 *157:77 *212:44 0
53 *157:100 *2805:A 0
54 *157:100 *224:30 0
55 *157:100 *228:24 0
56 *157:110 *164:8 0
57 *157:115 *164:8 0
58 *157:121 *164:8 0
59 *157:123 *164:8 0
60 *157:128 *164:8 0
61 *2757:A1 *157:55 0
62 *2793:B *157:55 0
63 *2909:A *157:95 0
64 *2921:A *157:104 0
65 *2921:A *157:108 0
66 *2921:A *157:110 0
67 *2966:A *157:27 0
68 *2973:A *157:77 0
69 *89:80 *2912:A 0
70 *99:10 *157:55 0
71 *132:8 *157:100 0
72 *132:8 *157:156 0
73 *132:12 *157:104 0
74 *138:8 *157:27 0
75 *145:23 *2913:A 0
76 *145:23 *157:77 0
77 *147:10 *157:17 0
78 *147:10 *157:21 0
79 *147:21 *157:17 0
80 *147:21 *157:77 0
81 *147:23 *157:11 0
82 *147:23 *157:100 0
83 *147:23 *157:156 0
84 *148:8 *157:21 0
85 *149:19 *157:27 0
86 *149:19 *157:39 0
*RES
1 *2909:X *157:6 40 
2 *157:6 *157:11 17.1598 
3 *157:11 *157:17 22.2145 
4 *157:17 *157:21 28.9713 
5 *157:21 *157:27 30.3309 
6 *157:27 *2910:A 21.1021 
7 *157:21 *157:39 1.8334 
8 *157:39 *2911:A 40.5356 
9 *157:17 *157:55 32.7102 
10 *157:55 *157:59 20.3193 
11 *157:59 *2912:A 20.9682 
12 *157:11 *157:77 27.0555 
13 *157:77 *2913:A 20.9579 
14 *2909:X *157:95 40.5356 
15 *157:95 *157:100 24.3286 
16 *157:100 *157:104 28.1061 
17 *157:104 *157:108 1.1845 
18 *157:108 *157:110 0.9682 
19 *157:110 *157:115 2.5441 
20 *157:115 *157:121 1.7819 
21 *157:121 *157:123 0.8961 
22 *157:123 *157:128 0.3914 
23 *157:128 *2915:A 22.0291 
24 *157:121 *2914:A 20 
25 *157:108 *2916:A 20 
26 *157:100 *157:156 22.678 
27 *157:156 *2917:A 20.9682 
*END

*D_NET *158 0.012667
*CONN
*I *2880:CLK I *D sg13cmos5l_dfrbpq_1
*I *2881:CLK I *D sg13cmos5l_dfrbpq_1
*I *2878:CLK I *D sg13cmos5l_dfrbpq_1
*I *2882:CLK I *D sg13cmos5l_dfrbpq_1
*I *2877:CLK I *D sg13cmos5l_dfrbpq_1
*I *2904:CLK I *D sg13cmos5l_dfrbpq_1
*I *2876:CLK I *D sg13cmos5l_dfrbpq_1
*I *2910:X O *D sg13cmos5l_buf_8
*CAP
1 *2880:CLK 0.000364337
2 *2881:CLK 0.000606776
3 *2878:CLK 0.000108991
4 *2882:CLK 0.000413856
5 *2877:CLK 0.00035707
6 *2904:CLK 0.000571062
7 *2876:CLK 0.000555247
8 *2910:X 0.000699948
9 *158:37 0.00120772
10 *158:33 0.000931953
11 *158:16 0.000877882
12 *158:14 0.000331275
13 *158:12 0.00102551
14 *158:10 0.00134486
15 *2876:CLK *2812:A1 0
16 *2876:CLK *2815:A 0
17 *2876:CLK *250:41 0
18 *2876:CLK *250:58 0
19 *2877:CLK *233:6 0
20 *2880:CLK *232:6 0
21 *2880:CLK *251:39 0
22 *2881:CLK *2881:RESET_B 0
23 *2881:CLK *333:22 0
24 *2882:CLK *236:8 0.000142398
25 *2882:CLK *335:10 0
26 *2904:CLK *233:6 0
27 *2904:CLK *278:10 0.000242078
28 *158:10 *2875:RESET_B 0
29 *158:10 *2875:CLK 0.000112095
30 *158:10 *159:37 0.000161391
31 *158:10 *159:52 0
32 *158:10 *196:10 0
33 *158:10 *237:10 0
34 *158:37 *235:29 0
35 *2814:B1 *158:37 0
36 *2818:A2 *158:10 0.000698895
37 *2818:A2 *158:12 0.000396105
38 *2818:B1 *158:10 0
39 *2818:B1 *158:12 0
40 *2821:A *2881:CLK 0
41 *2822:B1 *2881:CLK 0
42 *2906:A *2904:CLK 0
43 *2954:A *158:10 0
44 *2999:A *2904:CLK 0.00024216
45 *3006:A *2881:CLK 8.00954e-05
46 *3008:A *2876:CLK 0
47 *3008:A *2878:CLK 0
48 *60:8 *158:14 0
49 *61:10 *2881:CLK 0
50 *115:34 *2876:CLK 0
51 *133:24 *2876:CLK 0
52 *133:26 *158:33 0
53 *133:26 *158:37 0
54 *133:62 *158:33 0
55 *133:70 *2882:CLK 0
56 *133:94 *158:12 0.000478215
57 *133:94 *158:14 0.000426846
58 *133:94 *158:16 0.000290261
59 *136:8 *2878:CLK 0
60 *136:8 *2881:CLK 0
61 *140:10 *2877:CLK 0
62 *140:10 *2904:CLK 0
*RES
1 *2910:X *158:10 48.1782 
2 *158:10 *158:12 4.0582 
3 *158:12 *158:14 2.0806 
4 *158:14 *158:16 1.339 
5 *158:16 *2876:CLK 45.562 
6 *158:16 *158:33 2.1527 
7 *158:33 *158:37 22.3278 
8 *158:37 *2904:CLK 25.0779 
9 *158:37 *2877:CLK 22.9149 
10 *158:33 *2882:CLK 44.3286 
11 *158:14 *2878:CLK 40.9682 
12 *158:12 *2881:CLK 44.9302 
13 *158:10 *2880:CLK 43.1312 
*END

*D_NET *159 0.0248859
*CONN
*I *2851:CLK I *D sg13cmos5l_dfrbpq_1
*I *2900:CLK I *D sg13cmos5l_dfrbpq_1
*I *2901:CLK I *D sg13cmos5l_dfrbpq_1
*I *2902:CLK I *D sg13cmos5l_dfrbpq_1
*I *2879:CLK I *D sg13cmos5l_dfrbpq_1
*I *2875:CLK I *D sg13cmos5l_dfrbpq_1
*I *2903:CLK I *D sg13cmos5l_dfrbpq_1
*I *2911:X O *D sg13cmos5l_buf_8
*CAP
1 *2851:CLK 0
2 *2900:CLK 0
3 *2901:CLK 0
4 *2902:CLK 0
5 *2879:CLK 0
6 *2875:CLK 7.22855e-05
7 *2903:CLK 0.000573952
8 *2911:X 0.000375391
9 *159:78 0.00323449
10 *159:52 0.000450928
11 *159:37 0.000827458
12 *159:24 0.00098644
13 *159:22 0.000700247
14 *159:16 0.000960401
15 *159:10 0.000854372
16 *159:8 0.00409585
17 *2875:CLK *2875:RESET_B 0
18 *2903:CLK *2902:RESET_B 0
19 *2903:CLK *251:27 0
20 *159:16 *203:10 0.000234727
21 *159:22 *2819:B_N 0
22 *159:24 *2819:B_N 0
23 *159:24 *332:8 0
24 *159:52 *2819:A 0.000501044
25 *159:52 *196:10 0
26 *159:52 *232:6 0
27 *159:52 *251:33 0
28 *159:78 *258:10 0.00039332
29 *159:78 *270:23 0.000287758
30 *2908:adc_ref[6] *159:78 0
31 *2910:A *159:37 0
32 *2954:A *159:52 0.000112617
33 *2958:A *159:10 0
34 *2966:A *159:16 0
35 *2966:A *159:22 0
36 *125:8 *159:16 0
37 *132:23 *159:78 0
38 *138:8 *159:52 0
39 *148:21 *159:10 0
40 *148:21 *159:78 0
41 *150:6 *159:22 0
42 *150:12 *159:10 0.00165015
43 *150:12 *159:16 0.000663131
44 *150:12 *159:78 0.00763785
45 *151:8 *159:37 0
46 *151:27 *2903:CLK 0
47 *157:27 *159:22 0
48 *157:27 *159:37 0
49 *158:10 *2875:CLK 0.000112095
50 *158:10 *159:37 0.000161391
51 *158:10 *159:52 0
*RES
1 *2911:X *159:8 43.9964 
2 *159:8 *159:10 7.7662 
3 *159:10 *159:16 25.3354 
4 *159:16 *159:22 25.8916 
5 *159:22 *159:24 1.339 
6 *159:24 *2903:CLK 45.5414 
7 *159:24 *159:37 23.3475 
8 *159:37 *2875:CLK 20.7519 
9 *159:37 *159:52 45.2427 
10 *159:52 *2879:CLK 20 
11 *159:22 *2902:CLK 40 
12 *159:16 *2901:CLK 20 
13 *159:10 *2900:CLK 40 
14 *159:8 *159:78 47.8126 
15 *159:78 *2851:CLK 40 
*END

*D_NET *160 0.011415
*CONN
*I *2892:CLK I *D sg13cmos5l_dfrbpq_1
*I *2894:CLK I *D sg13cmos5l_dfrbpq_1
*I *2889:CLK I *D sg13cmos5l_dfrbpq_1
*I *2905:CLK I *D sg13cmos5l_dfrbpq_1
*I *2887:CLK I *D sg13cmos5l_dfrbpq_1
*I *2893:CLK I *D sg13cmos5l_dfrbpq_1
*I *2895:CLK I *D sg13cmos5l_dfrbpq_1
*I *2912:X O *D sg13cmos5l_buf_8
*CAP
1 *2892:CLK 0.000197829
2 *2894:CLK 0
3 *2889:CLK 0
4 *2905:CLK 0.00026251
5 *2887:CLK 0
6 *2893:CLK 0.000716286
7 *2895:CLK 0.000145234
8 *2912:X 0.000457426
9 *160:28 0.0015274
10 *160:24 0.000848779
11 *160:22 0.000871206
12 *160:18 0.0013855
13 *160:10 0.0012193
14 *2892:CLK *312:6 0
15 *2892:CLK *312:33 0
16 *2893:CLK *2745:A 0
17 *2893:CLK *2775:C 0.000144691
18 *2893:CLK *2893:D 0
19 *2893:CLK *249:97 0
20 *2893:CLK *326:14 0
21 *2895:CLK *2893:D 0
22 *2895:CLK *251:8 0
23 *2895:CLK *254:12 8.02269e-05
24 *2895:CLK *254:22 0
25 *2905:CLK *254:12 0
26 *2905:CLK *309:12 0
27 *160:10 *2972:A 0
28 *160:10 *306:12 0.000112651
29 *160:10 *327:20 0
30 *160:18 *2756:A_N 0
31 *160:18 *2784:B1 0.000273617
32 *160:18 *2787:A 0.000144779
33 *160:18 *2972:A 0
34 *160:18 *220:34 0.00023464
35 *160:18 *247:32 0.000181192
36 *160:18 *247:41 0
37 *160:18 *252:67 0
38 *160:18 *260:14 0
39 *160:18 *320:23 0.000181694
40 *160:22 *220:34 0.0011432
41 *160:22 *252:18 0
42 *160:24 *254:12 0
43 *160:24 *308:10 0.0001757
44 *160:24 *309:22 0
45 *160:28 *2778:A 0.00011247
46 *160:28 *249:113 0
47 *160:28 *254:12 0
48 *160:28 *307:39 0
49 *160:28 *309:22 0
50 *2751:A *2895:CLK 0
51 *2757:A1 *2892:CLK 0.000209856
52 *2757:A2 *2892:CLK 0.00033942
53 *2763:A2 *160:18 8.01609e-05
54 *2766:A1 *2893:CLK 0
55 *2766:A2 *2893:CLK 8.00842e-05
56 *2787:B *160:18 0
57 *51:10 *160:24 0
58 *51:10 *160:28 0
59 *89:80 *160:18 0
60 *96:6 *160:28 0
61 *96:46 *160:28 0
62 *100:12 *160:10 0.000176715
63 *100:12 *160:18 0
64 *106:10 *2893:CLK 0
65 *113:31 *160:28 0.000112426
66 *115:20 *160:28 0
67 *120:12 *160:18 0
68 *143:43 *160:18 0
69 *143:43 *160:22 0
*RES
1 *2912:X *160:10 22.9664 
2 *160:10 *160:18 29.888 
3 *160:18 *160:22 25.2942 
4 *160:22 *160:24 1.8334 
5 *160:24 *160:28 26.592 
6 *160:28 *2895:CLK 41.6274 
7 *160:28 *2893:CLK 46.3516 
8 *160:24 *2887:CLK 20 
9 *160:22 *2905:CLK 22.266 
10 *160:18 *2889:CLK 40 
11 *160:10 *2894:CLK 20 
12 *2912:X *2892:CLK 42.266 
*END

*D_NET *161 0.00811078
*CONN
*I *2898:CLK I *D sg13cmos5l_dfrbpq_1
*I *2899:CLK I *D sg13cmos5l_dfrbpq_1
*I *2897:CLK I *D sg13cmos5l_dfrbpq_1
*I *2891:CLK I *D sg13cmos5l_dfrbpq_1
*I *2890:CLK I *D sg13cmos5l_dfrbpq_1
*I *2888:CLK I *D sg13cmos5l_dfrbpq_1
*I *2896:CLK I *D sg13cmos5l_dfrbpq_1
*I *2913:X O *D sg13cmos5l_buf_8
*CAP
1 *2898:CLK 8.2045e-05
2 *2899:CLK 0.000418182
3 *2897:CLK 0.000198953
4 *2891:CLK 0.000272982
5 *2890:CLK 0
6 *2888:CLK 0.000609824
7 *2896:CLK 0
8 *2913:X 0.000724562
9 *161:70 0.00111035
10 *161:38 0.000844082
11 *161:23 0.00159485
12 *161:12 0.000684004
13 *161:8 0.000583474
14 *2888:CLK *197:8 0.000181181
15 *2888:CLK *218:8 0
16 *2888:CLK *225:12 0
17 *2888:CLK *253:19 0
18 *2888:CLK *319:8 0.000501547
19 *2891:CLK *322:35 0
20 *2891:CLK *329:20 0
21 *2897:CLK *253:48 0
22 *2899:CLK *2772:B 0
23 *2899:CLK *2791:A2 0
24 *2899:CLK *2899:RESET_B 0
25 *161:8 *260:14 0
26 *161:12 *253:33 0
27 *161:12 *260:14 0
28 *161:23 *218:8 0
29 *161:23 *260:14 0
30 *161:38 *2790:A 0
31 *161:38 *253:23 0.000209052
32 *161:38 *253:33 8.02927e-05
33 *161:38 *329:20 0
34 *161:70 *2788:A1 0
35 *161:70 *253:48 0
36 *161:70 *321:14 0
37 *2783:B2 *2888:CLK 0
38 *2974:A *2897:CLK 0
39 *2974:A *161:23 0
40 *2974:A *161:70 0
41 *2981:A *161:70 1.54008e-05
42 *88:8 *161:23 0
43 *88:8 *161:38 0
44 *89:42 *2888:CLK 0
45 *110:8 *2899:CLK 0
46 *143:43 *161:8 0
47 *143:43 *161:12 0
48 *144:8 *161:8 0
49 *145:23 *161:70 0
50 *157:17 *2899:CLK 0
51 *157:21 *2899:CLK 0
52 *157:77 *2898:CLK 0
53 *157:77 *2899:CLK 0
54 *157:77 *161:70 0
*RES
1 *2913:X *161:8 41.0918 
2 *161:8 *161:12 22.575 
3 *161:12 *2896:CLK 20 
4 *161:12 *161:23 23.914 
5 *161:23 *2888:CLK 46.077 
6 *161:23 *161:38 25.7268 
7 *161:38 *2890:CLK 20 
8 *161:38 *2891:CLK 22.9252 
9 *161:8 *2897:CLK 41.7454 
10 *2913:X *161:70 25.7021 
11 *161:70 *2899:CLK 23.7345 
12 *161:70 *2898:CLK 21.1021 
*END

*D_NET *162 0.015904
*CONN
*I *2870:CLK I *D sg13cmos5l_dfrbpq_1
*I *2860:CLK I *D sg13cmos5l_dfrbpq_1
*I *2861:CLK I *D sg13cmos5l_dfrbpq_1
*I *2864:CLK I *D sg13cmos5l_dfrbpq_1
*I *2866:CLK I *D sg13cmos5l_dfrbpq_1
*I *2856:CLK I *D sg13cmos5l_dfrbpq_1
*I *2874:CLK I *D sg13cmos5l_dfrbpq_1
*I *2914:X O *D sg13cmos5l_buf_8
*CAP
1 *2870:CLK 0.000920612
2 *2860:CLK 0.00037441
3 *2861:CLK 0
4 *2864:CLK 0
5 *2866:CLK 0.000144907
6 *2856:CLK 0
7 *2874:CLK 0.000969159
8 *2914:X 0.000858039
9 *162:66 0.0010043
10 *162:55 0.000903851
11 *162:53 0.0014946
12 *162:40 0.00116494
13 *162:27 0.00129404
14 *162:10 0.00240123
15 *2860:CLK *2861:RESET_B 0
16 *2860:CLK *2983:A 0
17 *2860:CLK *180:23 0
18 *2866:CLK *243:77 0
19 *2866:CLK *260:36 0
20 *2870:CLK *2862:CLK 0
21 *2870:CLK *2869:CLK 0.00040452
22 *2870:CLK *2908:dac_out[7] 0.000209856
23 *2870:CLK *163:55 0.000209747
24 *2870:CLK *167:10 0
25 *2870:CLK *180:23 0
26 *2870:CLK *181:26 0
27 *2870:CLK *260:36 0
28 *2874:CLK *2806:S 0
29 *2874:CLK *2835:A0 4.77425e-05
30 *2874:CLK *2871:CLK 0
31 *2874:CLK *163:16 0
32 *2874:CLK *163:20 0
33 *2874:CLK *257:47 0
34 *2874:CLK *257:49 0
35 *2874:CLK *257:51 0
36 *2874:CLK *268:29 0
37 *2874:CLK *277:18 0
38 *162:10 *2842:S 7.51285e-05
39 *162:10 *2863:D 0
40 *162:10 *2920:A 0
41 *162:10 *163:10 0
42 *162:10 *164:8 0
43 *162:10 *176:16 0
44 *162:10 *242:12 0.000760265
45 *162:10 *242:29 0.000425501
46 *162:10 *257:45 0.000128662
47 *162:10 *272:10 7.96596e-05
48 *162:27 *2908:dac_out[4] 0
49 *162:27 *176:16 0
50 *162:27 *242:29 0.000555736
51 *162:40 *2843:S 0
52 *162:40 *2845:A1 0
53 *162:40 *179:23 0
54 *162:40 *242:90 0
55 *162:40 *255:26 0.000394828
56 *162:40 *256:44 0.000436358
57 *162:40 *276:47 0
58 *162:53 *179:23 0
59 *162:53 *280:8 0
60 *162:55 *2862:CLK 0.000436358
61 *162:55 *3000:A 0
62 *162:55 *180:23 0
63 *162:55 *277:10 0
64 *162:66 *2862:RESET_B 0
65 *162:66 *2862:CLK 0
66 *162:66 *2997:A 0
67 *162:66 *180:23 0
68 *162:66 *277:10 0.000209516
69 *2837:S *162:10 0
70 *2990:A *162:40 0
*RES
1 *2914:X *162:10 49.3524 
2 *162:10 *2874:CLK 49.1361 
3 *162:10 *162:27 25.7989 
4 *162:27 *2856:CLK 20 
5 *162:27 *162:40 27.3233 
6 *162:40 *2866:CLK 41.1845 
7 *162:40 *162:53 22.575 
8 *162:53 *162:55 2.9149 
9 *162:55 *2864:CLK 20 
10 *162:55 *162:66 6.4272 
11 *162:66 *2861:CLK 20 
12 *162:66 *2860:CLK 23.9964 
13 *162:53 *2870:CLK 29.6717 
*END

*D_NET *163 0.0117694
*CONN
*I *2858:CLK I *D sg13cmos5l_dfrbpq_1
*I *2865:CLK I *D sg13cmos5l_dfrbpq_1
*I *2868:CLK I *D sg13cmos5l_dfrbpq_1
*I *2862:CLK I *D sg13cmos5l_dfrbpq_1
*I *2869:CLK I *D sg13cmos5l_dfrbpq_1
*I *2872:CLK I *D sg13cmos5l_dfrbpq_1
*I *2871:CLK I *D sg13cmos5l_dfrbpq_1
*I *2915:X O *D sg13cmos5l_buf_8
*CAP
1 *2858:CLK 0
2 *2865:CLK 0
3 *2868:CLK 0
4 *2862:CLK 0.00110732
5 *2869:CLK 0.000224563
6 *2872:CLK 5.07284e-05
7 *2871:CLK 0.000408922
8 *2915:X 0.000729863
9 *163:55 0.00122837
10 *163:46 0.000783136
11 *163:33 0.00103136
12 *163:20 0.00133765
13 *163:16 0.000588787
14 *163:14 0.000589873
15 *163:10 0.00111656
16 *2862:CLK *2862:RESET_B 0
17 *2862:CLK *260:36 0
18 *2869:CLK *260:36 0
19 *2871:CLK *242:44 0.000395068
20 *2871:CLK *257:51 0
21 *2871:CLK *257:59 0
22 *2872:CLK *243:93 0
23 *2872:CLK *255:54 0
24 *163:10 *2808:A0 0
25 *163:10 *2837:A0 0
26 *163:10 *2842:A0 0.00046875
27 *163:10 *2842:S 0
28 *163:10 *2850:A0 0
29 *163:10 *164:8 0
30 *163:10 *176:16 0
31 *163:10 *273:10 0
32 *163:14 *2844:A1 0
33 *163:14 *276:28 0
34 *163:14 *277:18 2.20966e-05
35 *163:14 *298:20 0
36 *163:16 *268:10 0
37 *163:20 *242:31 0
38 *163:20 *268:10 0
39 *163:33 *2872:RESET_B 0
40 *163:33 *242:44 0.000427074
41 *163:33 *303:10 0
42 *163:46 *303:10 0
43 *163:55 *260:36 0
44 *163:55 *303:10 0
45 *2837:S *163:10 0.000208615
46 *2870:CLK *2862:CLK 0
47 *2870:CLK *2869:CLK 0.00040452
48 *2870:CLK *163:55 0.000209747
49 *2874:CLK *2871:CLK 0
50 *2874:CLK *163:16 0
51 *2874:CLK *163:20 0
52 *2994:A *163:10 0
53 *81:10 *2871:CLK 0
54 *162:10 *163:10 0
55 *162:55 *2862:CLK 0.000436358
56 *162:66 *2862:CLK 0
*RES
1 *2915:X *163:10 47.8074 
2 *163:10 *163:14 24.5526 
3 *163:14 *163:16 1.8334 
4 *163:16 *163:20 23.5638 
5 *163:20 *2871:CLK 44.532 
6 *163:20 *163:33 6.7774 
7 *163:33 *2872:CLK 40.5356 
8 *163:33 *163:46 24.5526 
9 *163:46 *2869:CLK 22.6986 
10 *163:46 *163:55 1.4008 
11 *163:55 *2862:CLK 30.7532 
12 *163:55 *2868:CLK 20 
13 *163:16 *2865:CLK 20 
14 *163:14 *2858:CLK 20 
*END

*D_NET *164 0.0132916
*CONN
*I *2854:CLK I *D sg13cmos5l_dfrbpq_1
*I *2859:CLK I *D sg13cmos5l_dfrbpq_1
*I *2853:CLK I *D sg13cmos5l_dfrbpq_1
*I *2863:CLK I *D sg13cmos5l_dfrbpq_1
*I *2855:CLK I *D sg13cmos5l_dfrbpq_1
*I *2857:CLK I *D sg13cmos5l_dfrbpq_1
*I *2873:CLK I *D sg13cmos5l_dfrbpq_1
*I *2916:X O *D sg13cmos5l_buf_8
*CAP
1 *2854:CLK 4.72978e-05
2 *2859:CLK 0
3 *2853:CLK 0
4 *2863:CLK 0.000166717
5 *2855:CLK 0
6 *2857:CLK 0
7 *2873:CLK 0
8 *2916:X 0.00073917
9 *164:83 0.00121334
10 *164:72 0.00159843
11 *164:70 0.000744432
12 *164:55 0.000805964
13 *164:34 0.000640494
14 *164:22 0.00159601
15 *164:10 0.00113867
16 *164:8 0.00124953
17 *2863:CLK *255:16 0
18 *164:8 *2920:A 0
19 *164:8 *243:10 0
20 *164:8 *272:10 7.96596e-05
21 *164:10 *2834:A1 0
22 *164:10 *272:10 0
23 *164:22 *2834:A1 0
24 *164:22 *2850:A0 0
25 *164:22 *257:31 4.23522e-06
26 *164:22 *265:22 0
27 *164:34 *2808:A0 0
28 *164:34 *2844:A0 0
29 *164:34 *2844:S 0
30 *164:34 *2850:A0 0
31 *164:34 *2985:A 0.000144249
32 *164:34 *257:31 0.000140744
33 *164:34 *298:20 0
34 *164:55 *2933:A 0
35 *164:55 *260:28 7.52149e-05
36 *164:55 *272:10 0
37 *164:70 *260:28 0.000874759
38 *164:72 *2847:A0 0
39 *164:72 *256:44 0
40 *164:83 *2830:A0 0
41 *164:83 *2838:S 0
42 *164:83 *2847:A0 0
43 *164:83 *2852:CLK 0
44 *2830:S *164:83 1.54008e-05
45 *2836:S *164:22 0
46 *2855:D *164:22 0.000242483
47 *2908:adc_ref[7] *164:83 0.00156499
48 *2915:A *164:8 0
49 *2921:A *164:8 0.000209856
50 *77:10 *164:72 0
51 *141:14 *164:83 0
52 *141:20 *164:72 0
53 *141:20 *164:83 0
54 *141:30 *164:55 0
55 *141:30 *164:72 0
56 *141:32 *2863:CLK 0
57 *141:43 *164:55 0
58 *149:19 *164:83 0
59 *157:110 *164:8 0
60 *157:115 *164:8 0
61 *157:121 *164:8 0
62 *157:123 *164:8 0
63 *157:128 *164:8 0
64 *162:10 *164:8 0
65 *163:10 *164:8 0
*RES
1 *2916:X *164:8 47.2409 
2 *164:8 *164:10 2.0806 
3 *164:10 *164:22 29.8133 
4 *164:22 *164:34 46.2547 
5 *164:34 *2873:CLK 20 
6 *164:22 *2857:CLK 20 
7 *164:10 *2855:CLK 40 
8 *164:8 *164:55 3.8522 
9 *164:55 *2863:CLK 41.8334 
10 *164:55 *164:70 24.5938 
11 *164:70 *164:72 3.9964 
12 *164:72 *2853:CLK 20 
13 *164:72 *164:83 32.4882 
14 *164:83 *2859:CLK 40 
15 *164:70 *2854:CLK 20.5974 
*END

*D_NET *165 0.013448
*CONN
*I *2886:CLK I *D sg13cmos5l_dfrbpq_1
*I *2885:CLK I *D sg13cmos5l_dfrbpq_1
*I *2884:CLK I *D sg13cmos5l_dfrbpq_1
*I *2883:CLK I *D sg13cmos5l_dfrbpq_1
*I *2867:CLK I *D sg13cmos5l_dfrbpq_1
*I *2852:CLK I *D sg13cmos5l_dfrbpq_1
*I *2918:A I *D sg13cmos5l_inv_1
*I *2917:X O *D sg13cmos5l_buf_8
*CAP
1 *2886:CLK 0.000360427
2 *2885:CLK 0
3 *2884:CLK 0
4 *2883:CLK 0
5 *2867:CLK 0
6 *2852:CLK 0.000276249
7 *2918:A 0.000352065
8 *2917:X 0
9 *165:59 0.000725663
10 *165:52 0.000729571
11 *165:45 0.00194523
12 *165:29 0.000892325
13 *165:21 0.00134351
14 *165:19 0.00362013
15 *165:6 0.00166386
16 *2852:CLK *2838:S 0
17 *2886:CLK *2886:RESET_B 0
18 *2886:CLK *259:8 0
19 *165:21 *2951:A 0
20 *165:21 *259:18 0
21 *165:21 *259:20 0
22 *165:29 *2861:RESET_B 0
23 *165:29 *2951:A 0
24 *165:45 *259:12 0
25 *165:45 *259:18 0
26 *165:52 *259:10 0
27 *165:52 *259:12 0
28 *165:59 *259:8 0
29 *165:59 *259:10 0
30 *2830:S *2852:CLK 8.00842e-05
31 *2886:D *2886:CLK 0
32 *2908:adc_ref[6] *165:29 0
33 *2908:adc_ref[7] *165:29 0.00145887
34 *3009:A *165:45 0
35 *3009:A *165:52 0
36 *3010:A *165:52 0
37 *3010:A *165:59 0
38 *3011:A *2886:CLK 0
39 *3011:A *165:59 0
40 *3012:A *2886:CLK 0
41 *146:19 *2918:A 0
42 *146:19 *165:19 0
43 *147:23 *2918:A 0
44 *147:23 *165:19 0
45 *164:83 *2852:CLK 0
*RES
1 *2917:X *165:6 40 
2 *165:6 *2918:A 43.3166 
3 *165:6 *165:19 31.9686 
4 *165:19 *165:21 7.8898 
5 *165:21 *165:29 48.6108 
6 *165:29 *2852:CLK 22.6162 
7 *165:21 *2867:CLK 20 
8 *165:19 *165:45 17.407 
9 *165:45 *2883:CLK 20 
10 *165:45 *165:52 3.9964 
11 *165:52 *2884:CLK 20 
12 *165:52 *165:59 3.9084 
13 *165:59 *2885:CLK 20 
14 *165:59 *2886:CLK 23.9964 
*END

*D_NET *166 0.00407464
*CONN
*I *2838:A1 I *D sg13cmos5l_mux2_1
*I *2908:dac_out[0] I *D analogue_interface
*I *2859:Q O *D sg13cmos5l_dfrbpq_1
*CAP
1 *2838:A1 0
2 *2908:dac_out[0] 0.000753321
3 *2859:Q 0.000158354
4 *166:26 0.000887967
5 *166:8 0.00179964
6 *2908:dac_out[0] *2908:dac_out[1] 0
7 *2908:dac_out[0] *173:6 8.0185e-05
8 *2908:dac_out[0] *180:23 0
9 *166:8 *180:6 0
10 *166:8 *180:23 0
11 *166:26 *2838:S 0
12 *166:26 *2859:D 0
13 *166:26 *183:8 0
14 *166:26 *258:62 0.000395171
15 *166:26 *266:8 0
16 *149:19 *166:26 0
*RES
1 *2859:Q *166:8 21.5347 
2 *166:8 *2908:dac_out[0] 28.7138 
3 *166:8 *166:26 49.167 
4 *166:26 *2838:A1 20 
*END

*D_NET *167 0.0028253
*CONN
*I *2908:dac_out[10] I *D analogue_interface
*I *3013:A I *D sg13cmos5l_dlygate4sd3_1
*I *2869:Q O *D sg13cmos5l_dfrbpq_1
*CAP
1 *2908:dac_out[10] 0.000454329
2 *3013:A 0.000265352
3 *2869:Q 0.000434809
4 *167:10 0.00115449
5 *2908:dac_out[10] *2908:dac_out[11] 0
6 *3013:A *3022:A 0
7 *167:10 *2908:dac_out[9] 0
8 *167:10 *168:8 0.000436708
9 *167:10 *180:23 7.96158e-05
10 *2870:CLK *167:10 0
*RES
1 *2869:Q *167:10 45.2118 
2 *167:10 *3013:A 43.2342 
3 *167:10 *2908:dac_out[10] 5.8607 
*END

*D_NET *168 0.00251409
*CONN
*I *2908:dac_out[11] I *D analogue_interface
*I *3022:A I *D sg13cmos5l_dlygate4sd3_1
*I *2870:Q O *D sg13cmos5l_dfrbpq_1
*CAP
1 *2908:dac_out[11] 0.000430967
2 *3022:A 0.000217548
3 *2870:Q 0.000366221
4 *168:8 0.00101474
5 *168:8 *2908:dac_out[9] 4.79124e-05
6 *2908:dac_out[10] *2908:dac_out[11] 0
7 *3013:A *3022:A 0
8 *167:10 *168:8 0.000436708
*RES
1 *2870:Q *168:8 44.6453 
2 *168:8 *3022:A 42.4926 
3 *168:8 *2908:dac_out[11] 5.6135 
*END

*D_NET *169 0.00521607
*CONN
*I *2908:dac_out[12] I *D analogue_interface
*I *2950:A I *D sg13cmos5l_dlygate4sd3_1
*I *2871:Q O *D sg13cmos5l_dfrbpq_1
*CAP
1 *2908:dac_out[12] 0.00130485
2 *2950:A 0.000212141
3 *2871:Q 0.000193761
4 *169:25 0.00217055
5 *169:8 0.0012716
6 *2908:dac_out[12] *2908:dac_out[13] 0
7 *2950:A *194:10 0
8 *169:8 *2806:S 0
9 *169:8 *2952:A 1.54008e-05
10 *169:8 *172:12 0
11 *169:8 *194:10 0
12 *169:25 *172:12 4.77699e-05
13 *169:25 *172:16 0
*RES
1 *2871:Q *169:8 42.0497 
2 *169:8 *2950:A 42.575 
3 *169:8 *169:25 49.9704 
4 *169:25 *2908:dac_out[12] 16.4903 
*END

*D_NET *170 0.00554455
*CONN
*I *3023:A I *D sg13cmos5l_dlygate4sd3_1
*I *2908:dac_out[13] I *D analogue_interface
*I *2872:Q O *D sg13cmos5l_dfrbpq_1
*CAP
1 *3023:A 0
2 *2908:dac_out[13] 0.00184872
3 *2872:Q 0.000507285
4 *170:12 0.00184872
5 *170:10 0.000507285
6 *2908:dac_out[13] *2848:A1 0
7 *2908:dac_out[13] *2849:S 0.000331096
8 *170:10 *2870:RESET_B 0
9 *170:10 *255:54 0
10 *170:10 *260:36 0.000501451
11 *170:10 *294:8 0
12 *2908:dac_out[12] *2908:dac_out[13] 0
*RES
1 *2872:Q *170:10 45.6753 
2 *170:10 *170:12 20 
3 *170:12 *2908:dac_out[13] 41.6918 
4 *170:12 *3023:A 20 
*END

*D_NET *171 0.00823188
*CONN
*I *2957:A I *D sg13cmos5l_dlygate4sd3_1
*I *2908:dac_out[14] I *D analogue_interface
*I *2873:Q O *D sg13cmos5l_dfrbpq_1
*CAP
1 *2957:A 0
2 *2908:dac_out[14] 0.00174921
3 *2873:Q 0.000251067
4 *171:28 0.000221474
5 *171:16 0.00325988
6 *171:8 0.00198321
7 *2908:dac_out[14] *2908:dac_out[15] 0
8 *171:8 *2808:A0 0
9 *171:8 *2865:D 0
10 *171:8 *257:51 0
11 *171:16 *2808:A1 0
12 *171:16 *194:10 0
13 *171:16 *257:59 0
14 *171:28 *2850:S 0.000182023
15 *171:28 *242:44 0.000585012
16 *171:28 *257:59 0
17 *2874:D *171:16 0
18 *81:10 *171:8 0
*RES
1 *2873:Q *171:8 22.3999 
2 *171:8 *171:16 36.5624 
3 *171:16 *2908:dac_out[14] 22.1759 
4 *171:8 *171:28 43.5638 
5 *171:28 *2957:A 20 
*END

*D_NET *172 0.00674926
*CONN
*I *2952:A I *D sg13cmos5l_dlygate4sd3_1
*I *2908:dac_out[15] I *D analogue_interface
*I *2874:Q O *D sg13cmos5l_dfrbpq_1
*CAP
1 *2952:A 4.98126e-05
2 *2908:dac_out[15] 0.00147457
3 *2874:Q 0.000512847
4 *172:16 0.00265923
5 *172:12 0.00174732
6 *172:12 *2806:A1 0
7 *172:12 *2806:S 0
8 *172:12 *276:47 0.000242313
9 *2908:dac_out[14] *2908:dac_out[15] 0
10 *169:8 *2952:A 1.54008e-05
11 *169:8 *172:12 0
12 *169:25 *172:12 4.77699e-05
13 *169:25 *172:16 0
*RES
1 *2874:Q *172:12 26.0667 
2 *172:12 *172:16 33.2973 
3 *172:16 *2908:dac_out[15] 18.7151 
4 *172:12 *2952:A 20.5356 
*END

*D_NET *173 0.00312575
*CONN
*I *2839:A1 I *D sg13cmos5l_mux2_1
*I *2908:dac_out[1] I *D analogue_interface
*I *2860:Q O *D sg13cmos5l_dfrbpq_1
*CAP
1 *2839:A1 0
2 *2908:dac_out[1] 0.000552513
3 *2860:Q 8.11219e-05
4 *173:24 0.000828283
5 *173:6 0.00146192
6 *2908:dac_out[1] *180:23 0
7 *173:6 *180:23 0.000121732
8 *173:24 *2847:A0 0
9 *173:24 *184:8 0
10 *173:24 *243:49 0
11 *173:24 *261:8 0
12 *2908:dac_out[0] *2908:dac_out[1] 0
13 *2908:dac_out[0] *173:6 8.0185e-05
14 *76:8 *173:24 0
*RES
1 *2860:Q *173:6 20.9682 
2 *173:6 *2908:dac_out[1] 26.798 
3 *173:6 *173:24 48.4923 
4 *173:24 *2839:A1 20 
*END

*D_NET *174 0.00336208
*CONN
*I *2908:dac_out[2] I *D analogue_interface
*I *2840:A1 I *D sg13cmos5l_mux2_1
*I *2861:Q O *D sg13cmos5l_dfrbpq_1
*CAP
1 *2908:dac_out[2] 0.000455882
2 *2840:A1 0.000761243
3 *2861:Q 8.99436e-05
4 *174:8 0.00130707
5 *2840:A1 *2841:A1 0
6 *2840:A1 *2847:A0 0.000141952
7 *2840:A1 *2862:RESET_B 0.000605992
8 *2840:A1 *243:60 0
9 *2840:A1 *260:28 0
10 *2840:A1 *262:8 0
11 *2908:dac_out[2] *2908:dac_out[3] 0
12 *174:8 *180:23 0
*RES
1 *2861:Q *174:8 40.7519 
2 *174:8 *2840:A1 48.9816 
3 *174:8 *2908:dac_out[2] 6.11048 
*END

*D_NET *175 0.00275887
*CONN
*I *2908:dac_out[3] I *D analogue_interface
*I *2841:A1 I *D sg13cmos5l_mux2_1
*I *2862:Q O *D sg13cmos5l_dfrbpq_1
*CAP
1 *2908:dac_out[3] 0.000479045
2 *2841:A1 0.000706718
3 *2862:Q 0
4 *175:6 0.00118576
5 *2841:A1 *2862:D 0.000145053
6 *2841:A1 *2864:RESET_B 0.000242291
7 *2841:A1 *187:10 0
8 *2841:A1 *243:60 0
9 *2841:A1 *260:28 0
10 *2841:A1 *275:8 0
11 *2840:A1 *2841:A1 0
12 *2908:dac_out[2] *2908:dac_out[3] 0
13 *78:10 *2841:A1 0
*RES
1 *2862:Q *175:6 40 
2 *175:6 *2841:A1 47.6529 
3 *175:6 *2908:dac_out[3] 6.42978 
*END

*D_NET *176 0.00663741
*CONN
*I *2908:dac_out[4] I *D analogue_interface
*I *2842:A1 I *D sg13cmos5l_mux2_1
*I *2863:Q O *D sg13cmos5l_dfrbpq_1
*CAP
1 *2908:dac_out[4] 0.00146653
2 *2842:A1 0
3 *2863:Q 0.000128803
4 *176:16 0.000926466
5 *176:8 0.0025218
6 *2908:dac_out[4] *2908:dac_out[5] 0
7 *2908:dac_out[4] *187:10 0
8 *2908:dac_out[4] *274:12 0
9 *2908:dac_out[4] *277:10 0
10 *2908:dac_out[4] *277:18 0
11 *176:8 *255:16 0
12 *176:8 *256:44 0
13 *176:16 *257:45 0.000661386
14 *176:16 *268:29 0.000820066
15 *176:16 *273:10 0.00011236
16 *176:16 *276:28 0
17 *176:16 *276:47 0
18 *176:16 *277:18 0
19 *2994:A *176:16 0
20 *162:10 *176:16 0
21 *162:27 *2908:dac_out[4] 0
22 *162:27 *176:16 0
23 *163:10 *176:16 0
*RES
1 *2863:Q *176:8 41.1845 
2 *176:8 *176:16 30.0116 
3 *176:16 *2842:A1 20 
4 *176:8 *2908:dac_out[4] 16.7375 
*END

*D_NET *177 0.00148632
*CONN
*I *2908:dac_out[5] I *D analogue_interface
*I *3000:A I *D sg13cmos5l_dlygate4sd3_1
*I *2864:Q O *D sg13cmos5l_dfrbpq_1
*CAP
1 *2908:dac_out[5] 0.000430967
2 *3000:A 0.000142783
3 *2864:Q 0.000113076
4 *177:8 0.000686827
5 *3000:A *180:23 0.000112667
6 *3000:A *277:10 0
7 *177:8 *180:23 0
8 *2908:dac_out[4] *2908:dac_out[5] 0
9 *162:55 *3000:A 0
*RES
1 *2864:Q *177:8 40.9682 
2 *177:8 *3000:A 41.5965 
3 *177:8 *2908:dac_out[5] 5.6135 
*END

*D_NET *178 0.00431375
*CONN
*I *2908:dac_out[6] I *D analogue_interface
*I *2844:A1 I *D sg13cmos5l_mux2_1
*I *2865:Q O *D sg13cmos5l_dfrbpq_1
*CAP
1 *2908:dac_out[6] 0.00145132
2 *2844:A1 0.000681646
3 *2865:Q 0
4 *178:6 0.00213296
5 *2844:A1 *2808:A0 4.78195e-05
6 *2844:A1 *2844:S 0
7 *2844:A1 *255:26 0
8 *2844:A1 *268:16 0
9 *2844:A1 *277:18 0
10 *2908:dac_out[6] *2872:RESET_B 0
11 *2908:dac_out[6] *2908:dac_out[7] 0
12 *2908:dac_out[6] *179:23 0
13 *2908:dac_out[6] *243:77 0
14 *2908:dac_out[6] *255:26 0
15 *2908:dac_out[6] *255:52 0
16 *81:10 *2844:A1 0
17 *163:14 *2844:A1 0
*RES
1 *2865:Q *178:6 40 
2 *178:6 *2844:A1 47.8383 
3 *178:6 *2908:dac_out[6] 16.7375 
*END

*D_NET *179 0.00367967
*CONN
*I *2845:A1 I *D sg13cmos5l_mux2_1
*I *2908:dac_out[7] I *D analogue_interface
*I *2866:Q O *D sg13cmos5l_dfrbpq_1
*CAP
1 *2845:A1 0.000150592
2 *2908:dac_out[7] 0.000749146
3 *2866:Q 0.00158431
4 *179:23 0.00098576
5 *2908:dac_out[7] *180:23 0
6 *179:23 *255:26 0
7 *179:23 *280:8 0
8 *2870:CLK *2908:dac_out[7] 0.000209856
9 *2908:dac_out[6] *2908:dac_out[7] 0
10 *2908:dac_out[6] *179:23 0
11 *2990:A *2845:A1 0
12 *162:40 *2845:A1 0
13 *162:40 *179:23 0
14 *162:53 *179:23 0
*RES
1 *2866:Q *2908:dac_out[7] 49.4863 
2 *2866:Q *179:23 47.519 
3 *179:23 *2845:A1 41.1845 
*END

*D_NET *180 0.00705411
*CONN
*I *2908:dac_out[8] I *D analogue_interface
*I *2951:A I *D sg13cmos5l_dlygate4sd3_1
*I *2867:Q O *D sg13cmos5l_dfrbpq_1
*CAP
1 *2908:dac_out[8] 0.000488961
2 *2951:A 0.000296366
3 *2867:Q 2.77263e-05
4 *180:23 0.00300583
5 *180:6 0.00284096
6 *2908:dac_out[8] *2908:dac_out[9] 0
7 *180:23 *2983:A 0
8 *180:23 *2987:A 0
9 *180:23 *2997:A 8.02598e-05
10 *180:23 *181:8 0
11 *180:23 *181:26 0
12 *180:23 *277:10 0
13 *2860:CLK *180:23 0
14 *2870:CLK *180:23 0
15 *2908:dac_out[0] *180:23 0
16 *2908:dac_out[1] *180:23 0
17 *2908:dac_out[7] *180:23 0
18 *3000:A *180:23 0.000112667
19 *162:55 *180:23 0
20 *162:66 *180:23 0
21 *165:21 *2951:A 0
22 *165:29 *2951:A 0
23 *166:8 *180:6 0
24 *166:8 *180:23 0
25 *167:10 *180:23 7.96158e-05
26 *173:6 *180:23 0.000121732
27 *174:8 *180:23 0
28 *177:8 *180:23 0
*RES
1 *2867:Q *180:6 20.3502 
2 *180:6 *2951:A 23.3269 
3 *180:6 *180:23 46.2959 
4 *180:23 *2908:dac_out[8] 6.1079 
*END

*D_NET *181 0.00305445
*CONN
*I *3021:A I *D sg13cmos5l_dlygate4sd3_1
*I *2908:dac_out[9] I *D analogue_interface
*I *2868:Q O *D sg13cmos5l_dfrbpq_1
*CAP
1 *3021:A 0
2 *2908:dac_out[9] 0.000677023
3 *2868:Q 0.000385806
4 *181:26 0.00044044
5 *181:8 0.00150327
6 *2870:CLK *181:26 0
7 *2908:dac_out[8] *2908:dac_out[9] 0
8 *167:10 *2908:dac_out[9] 0
9 *168:8 *2908:dac_out[9] 4.79124e-05
10 *180:23 *181:8 0
11 *180:23 *181:26 0
*RES
1 *2868:Q *181:8 24.1303 
2 *181:8 *2908:dac_out[9] 27.8486 
3 *181:8 *181:26 44.8101 
4 *181:26 *3021:A 20 
*END

*D_NET *182 0.000995018
*CONN
*I *2991:A I *D sg13cmos5l_dlygate4sd3_1
*I *2851:Q O *D sg13cmos5l_dfrbpq_1
*CAP
1 *2991:A 0.000497509
2 *2851:Q 0.000497509
3 *2991:A *234:24 0
4 *2991:A *259:18 0
5 *2991:A *270:8 0
6 *2867:D *2991:A 0
*RES
1 *2851:Q *2991:A 44.226 
*END

*D_NET *183 0.00122651
*CONN
*I *2987:A I *D sg13cmos5l_dlygate4sd3_1
*I *2852:Q O *D sg13cmos5l_dfrbpq_1
*CAP
1 *2987:A 3.03764e-05
2 *2852:Q 0.000582881
3 *183:8 0.000613257
4 *2987:A *2861:RESET_B 0
5 *183:8 *266:8 0
6 *166:26 *183:8 0
7 *180:23 *2987:A 0
*RES
1 *2852:Q *183:8 44.7998 
2 *183:8 *2987:A 40.3193 
*END

*D_NET *184 0.00117294
*CONN
*I *2983:A I *D sg13cmos5l_dlygate4sd3_1
*I *2853:Q O *D sg13cmos5l_dfrbpq_1
*CAP
1 *2983:A 3.02657e-05
2 *2853:Q 0.000556203
3 *184:8 0.000586468
4 *184:8 *261:8 0
5 *2860:CLK *2983:A 0
6 *173:24 *184:8 0
7 *180:23 *2983:A 0
*RES
1 *2853:Q *184:8 45.047 
2 *184:8 *2983:A 40.3193 
*END

*D_NET *185 0.000533732
*CONN
*I *2995:A I *D sg13cmos5l_dlygate4sd3_1
*I *2854:Q O *D sg13cmos5l_dfrbpq_1
*CAP
1 *2995:A 0.000266866
2 *2854:Q 0.000266866
3 *2995:A *2840:S 0
4 *2995:A *2841:S 0
5 *2995:A *2847:A0 0
6 *2995:A *243:60 0
*RES
1 *2854:Q *2995:A 42.7089 
*END

*D_NET *186 0.000682896
*CONN
*I *2993:A I *D sg13cmos5l_dlygate4sd3_1
*I *2855:Q O *D sg13cmos5l_dfrbpq_1
*CAP
1 *2993:A 0.000198827
2 *2855:Q 0.000198827
3 *2993:A *242:12 0.000285241
4 *2993:A *260:22 0
*RES
1 *2855:Q *2993:A 42.4926 
*END

*D_NET *187 0.00161548
*CONN
*I *2997:A I *D sg13cmos5l_dlygate4sd3_1
*I *2856:Q O *D sg13cmos5l_dfrbpq_1
*CAP
1 *2997:A 4.52684e-05
2 *2856:Q 0.000698815
3 *187:10 0.000744084
4 *187:10 *2847:A0 0
5 *187:10 *243:77 4.70575e-05
6 *187:10 *274:12 0
7 *187:10 *275:8 0
8 *2841:A1 *187:10 0
9 *2908:dac_out[4] *187:10 0
10 *78:10 *187:10 0
11 *162:66 *2997:A 0
12 *180:23 *2997:A 8.02598e-05
*RES
1 *2856:Q *187:10 47.004 
2 *187:10 *2997:A 40.5356 
*END

*D_NET *188 0.000814314
*CONN
*I *2985:A I *D sg13cmos5l_dlygate4sd3_1
*I *2857:Q O *D sg13cmos5l_dfrbpq_1
*CAP
1 *2985:A 0.000230842
2 *2857:Q 0.000230842
3 *2985:A *2808:A0 0
4 *2985:A *2850:A0 0.000208382
5 *164:34 *2985:A 0.000144249
*RES
1 *2857:Q *2985:A 42.7398 
*END

*D_NET *189 0.0012538
*CONN
*I *2989:A I *D sg13cmos5l_dlygate4sd3_1
*I *2858:Q O *D sg13cmos5l_dfrbpq_1
*CAP
1 *2989:A 0.000360608
2 *2858:Q 0.000360608
3 *2989:A *276:47 0.000532587
4 *2990:A *2989:A 0
*RES
1 *2858:Q *2989:A 43.914 
*END

*D_NET *190 0.0332455
*CONN
*I *2935:A I *D sg13cmos5l_buf_1
*I *2931:A I *D sg13cmos5l_buf_1
*I *3027:X O *D sg13cmos5l_buf_1
*CAP
1 *2935:A 0
2 *2931:A 0.00161075
3 *3027:X 0.000420544
4 *190:25 0.00478168
5 *190:23 0.00478168
6 *190:12 0.0026412
7 *190:8 0.00145099
8 *2931:A *2930:A 0
9 *2931:A *248:57 0
10 *190:25 *229:12 0.017057
11 *190:25 *293:8 0.000501632
*RES
1 *3027:X *190:8 45.047 
2 *190:8 *190:12 31.3506 
3 *190:12 *2931:A 38.2516 
4 *190:12 *190:23 20 
5 *190:23 *190:25 81.9262 
6 *190:25 *2935:A 40 
*END

*D_NET *191 0.00912138
*CONN
*I *2763:B1 I *D sg13cmos5l_a21oi_1
*I *2781:A_N I *D sg13cmos5l_nand2b_1
*I *2768:A I *D sg13cmos5l_nor3_1
*I *2926:A I *D sg13cmos5l_buf_1
*I *3028:X O *D sg13cmos5l_buf_1
*CAP
1 *2763:B1 0.000287287
2 *2781:A_N 0
3 *2768:A 0.000458627
4 *2926:A 6.46159e-06
5 *3028:X 0.00073015
6 *191:33 0.00139498
7 *191:25 0.00124379
8 *191:14 0.000942734
9 *191:10 0.00164627
10 *2763:B1 *310:18 0
11 *2768:A *214:20 0
12 *2768:A *310:18 0
13 *2926:A *244:18 1.57858e-05
14 *191:10 *202:10 0
15 *191:10 *213:8 0.00105271
16 *191:14 *202:20 0
17 *191:14 *248:46 0
18 *191:33 *2754:B1 0.00014431
19 *191:33 *2977:A 0
20 *191:33 *220:6 0
21 *191:33 *220:14 0
22 *191:33 *244:18 0.000273098
23 *191:33 *307:10 4.75151e-05
24 *191:33 *310:18 0
25 *2749:A *2768:A 7.95302e-05
26 *2749:D *2768:A 0
27 *2749:D *191:33 0
28 *2754:A1 *2763:B1 0
29 *2763:A2 *2763:B1 0
30 *2768:B *2768:A 0
31 *101:10 *2763:B1 0
32 *102:10 *2763:B1 0.000320979
33 *102:10 *191:14 0
34 *102:10 *191:25 7.51285e-05
35 *113:12 *2768:A 0.000402027
36 *116:109 *191:33 0
37 *117:10 *2763:B1 0
*RES
1 *3028:X *191:10 47.3748 
2 *191:10 *191:14 9.3215 
3 *191:14 *2926:A 40.1056 
4 *191:14 *191:25 0.3502 
5 *191:25 *191:33 28.5593 
6 *191:33 *2768:A 24.4496 
7 *191:33 *2781:A_N 20 
8 *191:25 *2763:B1 43.3887 
*END

*D_NET *192 0.00102747
*CONN
*I *2850:A1 I *D sg13cmos5l_mux2_1
*I *2950:X O *D sg13cmos5l_dlygate4sd3_1
*CAP
1 *2850:A1 0.000115233
2 *2950:X 0.000227072
3 *192:8 0.000342305
4 *2850:A1 *2808:A1 0
5 *192:8 *194:10 0.000342864
*RES
1 *2950:X *192:8 43.3166 
2 *192:8 *2850:A1 41.1845 
*END

*D_NET *193 0.000552433
*CONN
*I *2846:A1 I *D sg13cmos5l_mux2_1
*I *2951:X O *D sg13cmos5l_dlygate4sd3_1
*CAP
1 *2846:A1 0
2 *2951:X 0.000276216
3 *193:8 0.000276216
4 *193:8 *259:44 0
5 *2908:adc_ref[6] *193:8 0
6 *148:21 *193:8 0
*RES
1 *2951:X *193:8 42.8222 
2 *193:8 *2846:A1 40 
*END

*D_NET *194 0.00164871
*CONN
*I *2808:A1 I *D sg13cmos5l_mux2_1
*I *2952:X O *D sg13cmos5l_dlygate4sd3_1
*CAP
1 *2808:A1 0.000314083
2 *2952:X 0.000331142
3 *194:10 0.000645225
4 *2808:A1 *2808:A0 1.54008e-05
5 *2808:A1 *2850:A0 0
6 *194:10 *257:59 0
7 *2850:A1 *2808:A1 0
8 *2871:D *2808:A1 0
9 *2874:D *2808:A1 0
10 *2950:A *194:10 0
11 *169:8 *194:10 0
12 *171:16 *2808:A1 0
13 *171:16 *194:10 0
14 *192:8 *194:10 0.000342864
*RES
1 *2952:X *194:10 44.1303 
2 *194:10 *2808:A1 43.3475 
*END

*D_NET *195 0.000449464
*CONN
*I *2810:A1 I *D sg13cmos5l_mux2_1
*I *2953:X O *D sg13cmos5l_dlygate4sd3_1
*CAP
1 *2810:A1 0.000200814
2 *2953:X 0.000200814
3 *2810:A1 *251:33 4.78356e-05
4 *2810:A1 *327:20 0
*RES
1 *2953:X *2810:A1 41.9879 
*END

*D_NET *196 0.00182033
*CONN
*I *2875:D I *D sg13cmos5l_dfrbpq_1
*I *2954:X O *D sg13cmos5l_dlygate4sd3_1
*CAP
1 *2875:D 0
2 *2954:X 0.000499051
3 *196:10 0.000499051
4 *196:10 *2819:A 0.000822227
5 *196:10 *2901:RESET_B 0
6 *196:10 *250:75 0
7 *2954:A *196:10 0
8 *138:8 *196:10 0
9 *158:10 *196:10 0
10 *159:52 *196:10 0
*RES
1 *2954:X *196:10 45.2427 
2 *196:10 *2875:D 40 
*END

*D_NET *197 0.00722009
*CONN
*I *2758:B I *D sg13cmos5l_nand2_1
*I *2782:A I *D sg13cmos5l_nor2_1
*I *2762:B I *D sg13cmos5l_nand2b_1
*I *2746:A I *D sg13cmos5l_nor4_1
*I *2955:X O *D sg13cmos5l_dlygate4sd3_1
*CAP
1 *2758:B 0
2 *2782:A 0
3 *2762:B 4.8915e-05
4 *2746:A 0
5 *2955:X 3.58792e-05
6 *197:52 0.000156269
7 *197:46 0.000772313
8 *197:33 0.000963557
9 *197:22 0.000631848
10 *197:12 0.00103475
11 *197:8 0.000140185
12 *2762:B *247:14 6.46834e-05
13 *2762:B *247:32 1.54008e-05
14 *197:8 *253:19 0.000181642
15 *197:22 *2746:B 0.000207179
16 *197:22 *2773:B 0
17 *197:22 *223:8 0.000208747
18 *197:22 *246:115 0
19 *197:22 *252:80 0
20 *197:22 *252:88 0
21 *197:22 *313:14 4.88114e-05
22 *197:33 *260:14 0.000980848
23 *197:33 *320:23 0.000181438
24 *197:33 *327:36 0
25 *197:46 *2752:B 0
26 *197:46 *198:10 0.000175667
27 *197:46 *247:8 0
28 *197:46 *247:14 0.000498643
29 *197:52 *2752:A 0.000234224
30 *197:52 *2924:A 0
31 *197:52 *247:83 0.00012816
32 *2754:A1 *197:52 0
33 *2763:A2 *2762:B 0
34 *2763:A2 *197:46 0
35 *2795:B *197:22 0
36 *2888:CLK *197:8 0.000181181
37 *101:10 *197:46 7.9706e-05
38 *110:33 *197:22 0
39 *116:80 *197:33 0.00023464
40 *120:12 *2762:B 1.54008e-05
41 *120:12 *197:33 0
*RES
1 *2955:X *197:8 40.8446 
2 *197:8 *197:12 21.1845 
3 *197:12 *197:22 46.6126 
4 *197:22 *2746:A 20 
5 *197:12 *197:33 44.5526 
6 *197:33 *2762:B 20.5356 
7 *197:33 *197:46 5.8728 
8 *197:46 *197:52 42.0806 
9 *197:52 *2782:A 20 
10 *197:46 *2758:B 20 
*END

*D_NET *198 0.00116315
*CONN
*I *2888:D I *D sg13cmos5l_dfrbpq_1
*I *2956:X O *D sg13cmos5l_dlygate4sd3_1
*CAP
1 *2888:D 0
2 *2956:X 0.000174678
3 *198:10 0.000174678
4 *198:10 *2752:B 0.000110983
5 *198:10 *225:12 0.000236596
6 *198:10 *252:40 0
7 *117:10 *198:10 0.000290544
8 *197:46 *198:10 0.000175667
*RES
1 *2956:X *198:10 42.5235 
2 *198:10 *2888:D 40 
*END

*D_NET *199 0.000640284
*CONN
*I *2807:A1 I *D sg13cmos5l_mux2_1
*I *2957:X O *D sg13cmos5l_dlygate4sd3_1
*CAP
1 *2807:A1 0.000117037
2 *2957:X 0.000203105
3 *199:8 0.000320142
4 *199:8 *242:72 0
*RES
1 *2957:X *199:8 42.575 
2 *199:8 *2807:A1 41.1845 
*END

*D_NET *200 0.000212025
*CONN
*I *2794:B1 I *D sg13cmos5l_a21oi_1
*I *2958:X O *D sg13cmos5l_dlygate4sd3_1
*CAP
1 *2794:B1 0.000106012
2 *2958:X 0.000106012
*RES
1 *2958:X *2794:B1 41.339 
*END

*D_NET *201 0.00113387
*CONN
*I *2795:C I *D sg13cmos5l_nor3_1
*I *2959:X O *D sg13cmos5l_dlygate4sd3_1
*CAP
1 *2795:C 0
2 *2959:X 0.00023636
3 *201:8 0.00023636
4 *201:8 *254:22 0
5 *201:8 *323:10 7.52149e-05
6 *201:8 *323:25 0.00058593
7 *201:8 *329:20 0
*RES
1 *2959:X *201:8 43.0694 
2 *201:8 *2795:C 40 
*END

*D_NET *202 0.00567193
*CONN
*I *2925:A I *D sg13cmos5l_buf_1
*I *3029:X O *D sg13cmos5l_buf_1
*CAP
1 *2925:A 0
2 *3029:X 0.00104216
3 *202:20 0.00093875
4 *202:10 0.00198091
5 *202:10 *213:8 0
6 *202:10 *224:12 0
7 *202:10 *298:14 0
8 *202:20 *2895:RESET_B 0
9 *202:20 *2929:A 0.000176537
10 *202:20 *2930:A 0
11 *202:20 *213:8 0
12 *202:20 *213:16 0
13 *202:20 *252:6 0
14 *202:20 *252:102 0.000176489
15 *202:20 *253:8 0.000323937
16 *202:20 *265:12 0
17 *202:20 *276:16 0
18 *2743:A *202:20 0
19 *3028:A *202:10 0.00030715
20 *3029:A *202:10 0.000144942
21 *3039:A *202:10 4.79124e-05
22 *143:24 *202:20 0.000533139
23 *191:10 *202:10 0
24 *191:14 *202:20 0
*RES
1 *3029:X *202:10 49.7541 
2 *202:10 *202:20 30.2073 
3 *202:20 *2925:A 20 
*END

*D_NET *203 0.000815846
*CONN
*I *2900:D I *D sg13cmos5l_dfrbpq_1
*I *2960:X O *D sg13cmos5l_dlygate4sd3_1
*CAP
1 *2900:D 0
2 *2960:X 0.000201939
3 *203:10 0.000201939
4 *203:10 *2900:RESET_B 0.00017724
5 *203:10 *224:20 0
6 *150:12 *203:10 0
7 *159:16 *203:10 0.000234727
*RES
1 *2960:X *203:10 42.5235 
2 *203:10 *2900:D 40 
*END

*D_NET *204 0.00251846
*CONN
*I *2800:B1 I *D sg13cmos5l_a21oi_1
*I *2961:X O *D sg13cmos5l_dlygate4sd3_1
*CAP
1 *2800:B1 0.000398863
2 *2961:X 0.000573072
3 *204:12 0.000971935
4 *2800:B1 *246:29 0
5 *2800:B1 *246:44 0.000446767
6 *2800:B1 *333:38 0
7 *204:12 *2796:A2 0
8 *204:12 *2796:B1 0
9 *204:12 *2901:D 0
10 *204:12 *2971:A 4.77425e-05
11 *2798:C *2800:B1 8.00842e-05
12 *2961:A *204:12 0
13 *2967:A *204:12 0
14 *126:10 *2800:B1 0
15 *126:10 *204:12 0
16 *150:6 *204:12 0
17 *151:27 *2800:B1 0
*RES
1 *2961:X *204:12 45.1895 
2 *204:12 *2800:B1 44.5938 
*END

*D_NET *205 0.00105533
*CONN
*I *2902:D I *D sg13cmos5l_dfrbpq_1
*I *2962:X O *D sg13cmos5l_dlygate4sd3_1
*CAP
1 *2902:D 0.000327458
2 *2962:X 0.000327458
3 *2902:D *2968:A 0
4 *2902:D *306:24 0.000240668
5 *2902:D *333:38 0.000112008
6 *2801:B *2902:D 0
7 *2801:C *2902:D 4.77425e-05
8 *151:8 *2902:D 0
*RES
1 *2962:X *2902:D 43.1312 
*END

*D_NET *206 0.000603999
*CONN
*I *2791:B1 I *D sg13cmos5l_a21oi_1
*I *2963:X O *D sg13cmos5l_dlygate4sd3_1
*CAP
1 *2791:B1 0
2 *2963:X 0.000120349
3 *206:8 0.000120349
4 *206:8 *246:89 0.000234726
5 *206:8 *246:99 0.000128576
6 *99:10 *206:8 0
*RES
1 *2963:X *206:8 41.5862 
2 *206:8 *2791:B1 40 
*END

*D_NET *207 0.00228269
*CONN
*I *2792:C I *D sg13cmos5l_nor3_1
*I *2964:X O *D sg13cmos5l_dlygate4sd3_1
*CAP
1 *2792:C 0.000151555
2 *2964:X 0.000363008
3 *207:14 0.000318484
4 *207:8 0.000529937
5 *2792:C *312:33 0.000176383
6 *207:8 *215:28 2.23421e-05
7 *207:8 *246:63 0.000395568
8 *207:8 *330:41 0
9 *207:14 *313:14 0
10 *207:14 *330:14 0.000310009
11 *110:12 *207:8 0
12 *116:55 *2792:C 0
13 *122:16 *2792:C 1.54008e-05
*RES
1 *2964:X *207:8 43.811 
2 *207:8 *207:14 42.0497 
3 *207:14 *2792:C 41.4008 
*END

*D_NET *208 0.000385285
*CONN
*I *2899:D I *D sg13cmos5l_dfrbpq_1
*I *2965:X O *D sg13cmos5l_dlygate4sd3_1
*CAP
1 *2899:D 0.000192642
2 *2965:X 0.000192642
3 *2899:D *2772:B 0
4 *2899:D *2791:A2 0
5 *2899:D *2794:A1 0
*RES
1 *2965:X *2899:D 41.7819 
*END

*D_NET *209 0.000886555
*CONN
*I *2796:B1 I *D sg13cmos5l_a21oi_1
*I *2966:X O *D sg13cmos5l_dlygate4sd3_1
*CAP
1 *2796:B1 0.000289796
2 *2966:X 0.000289796
3 *2796:B1 *2901:D 0
4 *126:10 *2796:B1 0.000306963
5 *204:12 *2796:B1 0
*RES
1 *2966:X *2796:B1 43.3887 
*END

*D_NET *210 0.00211358
*CONN
*I *2798:B I *D sg13cmos5l_nor3_1
*I *2967:X O *D sg13cmos5l_dlygate4sd3_1
*CAP
1 *2798:B 0.000365159
2 *2967:X 0.000218961
3 *210:8 0.00058412
4 *2798:B *2962:A 0.000176496
5 *2798:B *215:10 0
6 *210:8 *2796:A2 0
7 *210:8 *2960:A 0
8 *210:8 *331:20 0.000236573
9 *2798:C *2798:B 0
10 *116:47 *2798:B 0.000532271
11 *126:10 *210:8 0
*RES
1 *2967:X *210:8 42.3278 
2 *210:8 *2798:B 43.914 
*END

*D_NET *211 0.000394544
*CONN
*I *2901:D I *D sg13cmos5l_dfrbpq_1
*I *2968:X O *D sg13cmos5l_dlygate4sd3_1
*CAP
1 *2901:D 0.000197272
2 *2968:X 0.000197272
3 *2901:D *2901:RESET_B 0
4 *2796:B1 *2901:D 0
5 *150:6 *2901:D 0
6 *204:12 *2901:D 0
*RES
1 *2968:X *2901:D 41.9673 
*END

*D_NET *212 0.00715188
*CONN
*I *2755:B I *D sg13cmos5l_nand2_1
*I *2773:B I *D sg13cmos5l_nand2b_1
*I *2746:C I *D sg13cmos5l_nor4_1
*I *2969:X O *D sg13cmos5l_dlygate4sd3_1
*CAP
1 *2755:B 0
2 *2773:B 0.000581711
3 *2746:C 0.000210538
4 *2969:X 0
5 *212:44 0.000615756
6 *212:10 0.00156713
7 *212:4 0.00139063
8 *2746:C *2746:D 1.54556e-05
9 *2746:C *2891:D 0
10 *2746:C *214:20 0
11 *2746:C *245:20 0
12 *2746:C *312:33 3.75703e-05
13 *2773:B *2790:A 0
14 *2773:B *2979:A 0
15 *2773:B *252:80 0.000144582
16 *2773:B *252:88 0
17 *2773:B *312:33 0
18 *2773:B *329:20 0
19 *212:10 *2898:D 0
20 *212:10 *245:20 0
21 *212:10 *253:48 0.000208878
22 *212:44 *234:18 0.00103482
23 *212:44 *245:20 0.00103963
24 *2973:A *212:44 0
25 *92:10 *2746:C 0
26 *110:12 *2746:C 0
27 *110:12 *212:10 0
28 *122:16 *2773:B 0.000305181
29 *147:10 *212:44 0
30 *147:21 *212:44 0
31 *157:77 *212:44 0
32 *197:22 *2773:B 0
*RES
1 *2969:X *212:4 20 
2 *212:4 *212:10 28.6726 
3 *212:10 *2746:C 42.333 
4 *212:10 *2773:B 45.645 
5 *212:4 *212:44 48.961 
6 *212:44 *2755:B 20 
*END

*D_NET *213 0.00486794
*CONN
*I *2748:B_N I *D sg13cmos5l_nor2b_1
*I *3030:X O *D sg13cmos5l_buf_1
*CAP
1 *2748:B_N 0
2 *3030:X 0.00125276
3 *213:16 0.000326659
4 *213:8 0.00157942
5 *213:8 *224:12 0
6 *213:8 *276:16 0
7 *213:16 *220:34 0
8 *213:16 *254:12 0
9 *3029:A *213:8 0
10 *3030:A *213:8 0
11 *3039:A *213:8 0
12 *143:10 *213:16 0.000340704
13 *143:24 *213:16 0.000240569
14 *143:41 *213:16 7.51285e-05
15 *191:10 *213:8 0.00105271
16 *202:10 *213:8 0
17 *202:20 *213:8 0
18 *202:20 *213:16 0
*RES
1 *3030:X *213:8 33.8294 
2 *213:8 *213:16 43.914 
3 *213:16 *2748:B_N 20 
*END

*D_NET *214 0.00409933
*CONN
*I *2891:D I *D sg13cmos5l_dfrbpq_1
*I *2776:D I *D sg13cmos5l_nor4_1
*I *2970:X O *D sg13cmos5l_dlygate4sd3_1
*CAP
1 *2891:D 8.64841e-05
2 *2776:D 0
3 *2970:X 6.239e-05
4 *214:20 0.000845837
5 *214:12 0.00111401
6 *214:8 0.000244075
7 *2891:D *2746:D 0
8 *2891:D *329:20 0
9 *214:8 *330:41 0.000341621
10 *214:12 *2746:D 0
11 *214:12 *2970:A 4.77425e-05
12 *214:12 *329:20 0
13 *214:20 *2776:C 1.54008e-05
14 *214:20 *2894:D 0.000127979
15 *214:20 *216:34 0
16 *214:20 *252:67 0
17 *214:20 *312:12 0
18 *214:20 *312:33 0
19 *2746:C *2891:D 0
20 *2746:C *214:20 0
21 *2757:A1 *214:20 0
22 *2768:A *214:20 0
23 *2795:B *214:12 0
24 *89:80 *214:20 0.000236347
25 *92:10 *2891:D 0
26 *92:10 *214:20 0
27 *99:10 *214:8 0.000342122
28 *100:12 *214:20 0.000181192
29 *110:12 *214:20 0.000454135
30 *113:12 *214:20 0
*RES
1 *2970:X *214:8 41.5862 
2 *214:8 *214:12 21.6171 
3 *214:12 *214:20 49.7232 
4 *214:20 *2776:D 20 
5 *214:12 *2891:D 20.9682 
*END

*D_NET *215 0.00309112
*CONN
*I *2746:D I *D sg13cmos5l_nor4_1
*I *2770:B I *D sg13cmos5l_nand2b_1
*I *2971:X O *D sg13cmos5l_dlygate4sd3_1
*CAP
1 *2746:D 0.000166731
2 *2770:B 0
3 *2971:X 0.00078262
4 *215:28 0.000649617
5 *215:10 0.000299734
6 *215:10 *2962:A 1.54008e-05
7 *215:10 *246:29 0.000235055
8 *215:10 *249:72 0
9 *215:10 *330:20 0
10 *215:28 *2971:A 0
11 *215:28 *312:6 0
12 *215:28 *330:41 0
13 *2746:C *2746:D 1.54556e-05
14 *2798:B *215:10 0
15 *2798:C *215:10 0.000208956
16 *2891:D *2746:D 0
17 *2912:A *215:28 0
18 *89:80 *215:28 0
19 *89:92 *215:28 0
20 *89:98 *215:10 0.000342034
21 *92:10 *2746:D 1.54556e-05
22 *116:47 *215:28 0
23 *116:55 *2746:D 0
24 *116:55 *215:28 0.000337719
25 *157:59 *215:28 0
26 *207:8 *215:28 2.23421e-05
27 *214:12 *2746:D 0
*RES
1 *2971:X *215:10 43.7286 
2 *215:10 *2770:B 40 
3 *2971:X *215:28 44.6247 
4 *215:28 *2746:D 41.4008 
*END

*D_NET *216 0.00234226
*CONN
*I *2775:D I *D sg13cmos5l_nor4_1
*I *2892:D I *D sg13cmos5l_dfrbpq_1
*I *2972:X O *D sg13cmos5l_dlygate4sd3_1
*CAP
1 *2775:D 0.000120822
2 *2892:D 0.000123345
3 *2972:X 0.000580165
4 *216:34 0.000583997
5 *216:10 0.000240336
6 *2775:D *2775:C 0
7 *2892:D *3014:A 0.000112556
8 *2892:D *328:22 0.000111385
9 *216:10 *327:20 0
10 *216:10 *328:22 7.96596e-05
11 *216:10 *329:20 0
12 *216:34 *312:12 0
13 *216:34 *316:8 0
14 *216:34 *327:20 0
15 *216:34 *328:22 4.74145e-05
16 *2768:B *2775:D 0
17 *91:14 *2775:D 0
18 *91:14 *216:34 0
19 *92:10 *216:34 0
20 *107:8 *216:34 0.000342581
21 *112:12 *216:34 0
22 *214:20 *216:34 0
*RES
1 *2972:X *216:10 41.133 
2 *216:10 *2892:D 41.4214 
3 *2972:X *216:34 44.6247 
4 *216:34 *2775:D 40.9682 
*END

*D_NET *217 0.000451824
*CONN
*I *2788:B1 I *D sg13cmos5l_a21oi_1
*I *2973:X O *D sg13cmos5l_dlygate4sd3_1
*CAP
1 *2788:B1 0
2 *2973:X 8.15744e-05
3 *217:8 8.15744e-05
4 *217:8 *234:18 0.000288675
5 *2908:adc_ref[1] *217:8 0
*RES
1 *2973:X *217:8 41.339 
2 *217:8 *2788:B1 40 
*END

*D_NET *218 0.00258818
*CONN
*I *2789:C I *D sg13cmos5l_nor3_1
*I *2974:X O *D sg13cmos5l_dlygate4sd3_1
*CAP
1 *2789:C 0.000247814
2 *2974:X 0.000438664
3 *218:8 0.000686477
4 *2789:C *249:36 0
5 *218:8 *225:12 0.00071409
6 *218:8 *226:8 0
7 *218:8 *260:14 0
8 *218:8 *319:8 0.000501131
9 *2888:CLK *218:8 0
10 *89:8 *218:8 0
11 *122:16 *2789:C 0
12 *161:23 *218:8 0
*RES
1 *2974:X *218:8 45.5414 
2 *218:8 *2789:C 42.266 
*END

*D_NET *219 0.00143823
*CONN
*I *2898:D I *D sg13cmos5l_dfrbpq_1
*I *2975:X O *D sg13cmos5l_dlygate4sd3_1
*CAP
1 *2898:D 0.000339676
2 *2975:X 0.000379441
3 *219:8 0.000719117
4 *2898:D *253:48 0
5 *2898:D *322:22 0
6 *2898:D *322:35 0
7 *219:8 *247:52 0
8 *219:8 *321:14 0
9 *219:8 *322:35 0
10 *212:10 *2898:D 0
*RES
1 *2975:X *219:8 43.811 
2 *219:8 *2898:D 41.8376 
*END

*D_NET *220 0.00600122
*CONN
*I *2753:B I *D sg13cmos5l_nand2b_1
*I *2748:A I *D sg13cmos5l_nor2b_1
*I *2784:A2 I *D sg13cmos5l_a21oi_1
*I *2785:A I *D sg13cmos5l_nor3_1
*I *2976:X O *D sg13cmos5l_dlygate4sd3_1
*CAP
1 *2753:B 0
2 *2748:A 0
3 *2784:A2 0
4 *2785:A 0.000223766
5 *2976:X 0.000133627
6 *220:52 0.000290361
7 *220:46 0.000290361
8 *220:34 0.000641759
9 *220:14 0.000589416
10 *220:6 0.00114104
11 *2785:A *247:32 1.54008e-05
12 *2785:A *247:41 0
13 *2785:A *252:67 0.000144963
14 *220:6 *310:18 0.000208786
15 *220:14 *246:8 0
16 *220:14 *310:18 0.00030522
17 *220:14 *328:38 0.000236596
18 *220:34 *254:12 4.78521e-05
19 *220:34 *260:12 0
20 *220:34 *260:14 0
21 *2783:A2 *220:14 0
22 *2785:B *2785:A 0.000241924
23 *2786:C *2785:A 0
24 *116:109 *220:14 0.000112308
25 *160:18 *220:34 0.00023464
26 *160:22 *220:34 0.0011432
27 *191:33 *220:6 0
28 *191:33 *220:14 0
29 *213:16 *220:34 0
*RES
1 *2976:X *220:6 21.4008 
2 *220:6 *220:14 43.8831 
3 *220:14 *2785:A 22.266 
4 *220:14 *2784:A2 20 
5 *220:6 *220:34 47.3439 
6 *220:34 *2748:A 20 
7 *2976:X *220:46 40 
8 *220:46 *220:52 43.5638 
9 *220:52 *2753:B 40 
*END

*D_NET *221 0.0034871
*CONN
*I *2775:A I *D sg13cmos5l_nor4_1
*I *2889:D I *D sg13cmos5l_dfrbpq_1
*I *2977:X O *D sg13cmos5l_dlygate4sd3_1
*CAP
1 *2775:A 0.000698578
2 *2889:D 0
3 *2977:X 9.16495e-05
4 *221:12 0.000894509
5 *221:8 0.000287581
6 *2775:A *2775:C 0
7 *2775:A *3025:A 0
8 *2775:A *244:18 0
9 *2775:A *244:22 0.000224795
10 *2775:A *244:32 0.000160168
11 *2775:A *252:18 8.0216e-05
12 *2775:A *309:22 0
13 *221:8 *2905:RESET_B 0.000181508
14 *221:8 *252:40 0.000212215
15 *221:8 *253:19 0.000448915
16 *221:12 *252:27 0
17 *221:12 *309:12 0
18 *2779:D *2775:A 4.77425e-05
19 *96:46 *2775:A 0
20 *113:16 *2775:A 1.54008e-05
21 *114:16 *2775:A 0.000143818
*RES
1 *2977:X *221:8 42.0806 
2 *221:8 *221:12 21.6171 
3 *221:12 *2889:D 20 
4 *221:12 *2775:A 27.0246 
*END

*D_NET *222 0.0033948
*CONN
*I *2745:A I *D sg13cmos5l_nor3_1
*I *2765:B I *D sg13cmos5l_nand2b_1
*I *2978:X O *D sg13cmos5l_dlygate4sd3_1
*CAP
1 *2745:A 0.000724548
2 *2765:B 0.000180123
3 *2978:X 0.000112453
4 *222:8 0.00101712
5 *2745:A *2766:B1 4.77425e-05
6 *2745:A *2775:C 0
7 *2745:A *2804:C 0.000144086
8 *2745:A *249:97 0.000434752
9 *2745:A *295:31 0
10 *2745:A *295:41 1.54008e-05
11 *2745:A *306:50 0
12 *2745:A *329:28 0
13 *2765:B *295:41 0.000181192
14 *2765:B *329:28 0
15 *222:8 *295:41 5.30319e-05
16 *2802:B *222:8 0
17 *2803:B1 *2745:A 1.54008e-05
18 *2893:CLK *2745:A 0
19 *131:8 *2765:B 0.00012816
20 *131:8 *222:8 0.00034079
*RES
1 *2978:X *222:8 41.5862 
2 *222:8 *2765:B 42.0806 
3 *222:8 *2745:A 46.758 
*END

*D_NET *223 0.00377905
*CONN
*I *2756:B I *D sg13cmos5l_nand2b_1
*I *2746:B I *D sg13cmos5l_nor4_1
*I *2979:X O *D sg13cmos5l_dlygate4sd3_1
*CAP
1 *2756:B 0
2 *2746:B 0.00022798
3 *2979:X 0.000194464
4 *223:25 0.000359424
5 *223:8 0.000781868
6 *2746:B *312:33 4.9365e-05
7 *223:8 *312:33 0
8 *223:25 *234:18 0.00119543
9 *223:25 *247:52 0
10 *114:29 *223:25 0.000554589
11 *122:16 *223:8 0
12 *197:22 *2746:B 0.000207179
13 *197:22 *223:8 0.000208747
*RES
1 *2979:X *223:8 21.9673 
2 *223:8 *2746:B 22.2866 
3 *223:8 *223:25 45.5414 
4 *223:25 *2756:B 20 
*END

*D_NET *224 0.0323953
*CONN
*I *2829:A_N I *D sg13cmos5l_nand2b_1
*I *2805:B I *D sg13cmos5l_nand2_1
*I *3031:X O *D sg13cmos5l_buf_1
*CAP
1 *2829:A_N 0
2 *2805:B 0
3 *3031:X 0.000165996
4 *224:30 0.000133263
5 *224:24 0.000265412
6 *224:20 0.00654169
7 *224:18 0.00683418
8 *224:12 0.00300049
9 *224:10 0.00274184
10 *224:10 *228:10 0
11 *224:10 *228:12 0
12 *224:12 *228:12 0.00466361
13 *224:12 *298:14 0.00277251
14 *224:18 *228:22 0.00131966
15 *224:20 *2960:A 0
16 *224:20 *228:22 0.00279345
17 *224:20 *228:24 0
18 *224:20 *244:59 0
19 *224:20 *244:70 0
20 *224:20 *249:66 0
21 *224:20 *306:38 0
22 *224:20 *306:50 0
23 *224:20 *331:20 0
24 *224:24 *2829:B 0.000145031
25 *224:30 *2805:A 0
26 uio_oe[6] *224:18 0
27 *2766:A1 *224:20 0.000340533
28 *2958:A *224:20 0
29 *3028:A *224:12 0
30 *3029:A *224:12 0
31 *3030:A *224:12 0
32 *3031:A *224:10 4.7803e-05
33 *105:8 *224:20 0.000395078
34 *110:20 *224:20 0
35 *125:8 *224:20 0.000234726
36 *141:8 *224:24 0
37 *148:21 *224:20 0
38 *157:100 *224:30 0
39 *202:10 *224:12 0
40 *203:10 *224:20 0
41 *213:8 *224:12 0
*RES
1 *3031:X *224:10 22.1012 
2 *224:10 *224:12 31.312 
3 *224:12 *224:18 26.6023 
4 *224:18 *224:20 57.7006 
5 *224:20 *224:24 21.4008 
6 *224:24 *224:30 41.339 
7 *224:30 *2805:B 20 
8 *224:24 *2829:A_N 20 
*END

*D_NET *225 0.00389651
*CONN
*I *2784:B1 I *D sg13cmos5l_a21oi_1
*I *2980:X O *D sg13cmos5l_dlygate4sd3_1
*CAP
1 *2784:B1 0.000443633
2 *2980:X 0.000728021
3 *225:12 0.00117165
4 *2784:B1 *2976:A 0
5 *2784:B1 *247:32 0
6 *2784:B1 *247:41 1.54556e-05
7 *225:12 *2761:A 0
8 *225:12 *249:36 0
9 *225:12 *252:40 0
10 *225:12 *253:19 0
11 *2763:A2 *2784:B1 0
12 *2888:CLK *225:12 0
13 *89:8 *225:12 0
14 *89:21 *225:12 0
15 *101:22 *2784:B1 0
16 *117:10 *225:12 0.000234224
17 *118:10 *2784:B1 7.9225e-05
18 *160:18 *2784:B1 0.000273617
19 *198:10 *225:12 0.000236596
20 *218:8 *225:12 0.00071409
*RES
1 *2980:X *225:12 49.1773 
2 *225:12 *2784:B1 43.9964 
*END

*D_NET *226 0.00150447
*CONN
*I *2741:A I *D sg13cmos5l_inv_1
*I *2981:X O *D sg13cmos5l_dlygate4sd3_1
*CAP
1 *2741:A 0.000137103
2 *2981:X 0.000237818
3 *226:8 0.000374921
4 *2741:A *2790:A 0
5 *226:8 *260:14 0
6 *88:8 *2741:A 0.000144942
7 *145:23 *226:8 0.000609685
8 *218:8 *226:8 0
*RES
1 *2981:X *226:8 43.3166 
2 *226:8 *2741:A 41.4008 
*END

*D_NET *227 0.00149624
*CONN
*I *2761:B I *D sg13cmos5l_nand2_1
*I *2982:X O *D sg13cmos5l_dlygate4sd3_1
*CAP
1 *2761:B 0.000313257
2 *2982:X 0.000313257
3 *2761:B *249:36 0.000370194
4 *89:42 *2761:B 0.000499536
5 *122:16 *2761:B 0
*RES
1 *2982:X *2761:B 43.6977 
*END

*D_NET *228 0.0311612
*CONN
*I *2805:A I *D sg13cmos5l_nand2_1
*I *2829:B I *D sg13cmos5l_nand2b_1
*I *3032:X O *D sg13cmos5l_buf_1
*CAP
1 *2805:A 0.000226686
2 *2829:B 9.77544e-05
3 *3032:X 0.000235527
4 *228:24 0.0049116
5 *228:22 0.00564689
6 *228:12 0.00370883
7 *228:10 0.00288463
8 *228:10 *229:10 0
9 *228:12 *229:10 0
10 *228:22 *254:22 0.0028167
11 *228:22 *317:8 0
12 *228:24 *2772:B 0
13 *228:24 *2899:RESET_B 0.000532481
14 *228:24 *254:22 0.00108772
15 uio_oe[6] *228:22 0
16 uio_oe[7] *228:22 0
17 *3031:A *228:12 0
18 *3032:A *228:10 1.54008e-05
19 *99:10 *228:24 0
20 *132:8 *2805:A 7.52149e-05
21 *141:8 *2805:A 0
22 *141:8 *2829:B 0
23 *148:21 *2805:A 0
24 *148:21 *228:24 0
25 *157:55 *228:24 0
26 *157:100 *2805:A 0
27 *157:100 *228:24 0
28 *224:10 *228:10 0
29 *224:10 *228:12 0
30 *224:12 *228:12 0.00466361
31 *224:18 *228:22 0.00131966
32 *224:20 *228:22 0.00279345
33 *224:20 *228:24 0
34 *224:24 *2829:B 0.000145031
35 *224:30 *2805:A 0
*RES
1 *3032:X *228:10 22.6265 
2 *228:10 *228:12 32.7643 
3 *228:12 *228:22 40.1262 
4 *228:22 *228:24 45.0934 
5 *228:24 *2829:B 40.9682 
6 *228:24 *2805:A 42.5544 
*END

*D_NET *229 0.0318265
*CONN
*I *2828:S I *D sg13cmos5l_mux2_1
*I *2827:S I *D sg13cmos5l_mux2_1
*I *2826:S I *D sg13cmos5l_mux2_1
*I *2825:S I *D sg13cmos5l_mux2_1
*I *3033:X O *D sg13cmos5l_buf_1
*CAP
1 *2828:S 0
2 *2827:S 0
3 *2826:S 0
4 *2825:S 0
5 *3033:X 0.000355923
6 *229:32 0.000418757
7 *229:20 0.000793806
8 *229:16 0.000710358
9 *229:14 0.000335309
10 *229:12 0.00497297
11 *229:10 0.00532889
12 *229:16 *2828:A1 0.000567358
13 *229:16 *2886:RESET_B 0
14 *229:16 *259:10 0
15 *229:20 *2828:A1 0.000517374
16 *229:20 *256:64 0
17 *229:20 *260:58 0
18 *229:32 *245:56 0
19 *229:32 *260:58 0.000203717
20 *229:32 *290:8 0
21 *2883:D *229:20 0
22 *2884:D *229:20 0.000242313
23 *2885:D *229:16 0.000242313
24 *2885:D *229:20 8.03692e-05
25 *3032:A *229:10 0
26 *190:25 *229:12 0.017057
27 *228:10 *229:10 0
28 *228:12 *229:10 0
*RES
1 *3033:X *229:10 43.6977 
2 *229:10 *229:12 83.6566 
3 *229:12 *229:14 20 
4 *229:14 *229:16 3.9964 
5 *229:16 *229:20 4.3466 
6 *229:20 *229:32 44.3054 
7 *229:32 *2825:S 20 
8 *229:20 *2826:S 20 
9 *229:16 *2827:S 20 
10 *229:14 *2828:S 20 
*END

*D_NET *230 0.000934712
*CONN
*I *3042:A I *D sg13cmos5l_buf_1
*I *2906:X O *D sg13cmos5l_buf_1
*CAP
1 *3042:A 0
2 *2906:X 0.000270281
3 *230:10 0.000270281
4 *230:10 *3047:A 0
5 *230:10 *233:6 0
6 *230:10 *239:16 0
7 *230:10 *287:14 0.000394151
*RES
1 *2906:X *230:10 43.2342 
2 *230:10 *3042:A 40 
*END

*D_NET *231 0.000558638
*CONN
*I *3043:A I *D sg13cmos5l_buf_1
*I *2907:X O *D sg13cmos5l_buf_1
*CAP
1 *3043:A 0.000260017
2 *2907:X 0.000260017
3 *3043:A *3047:A 0
4 *2906:A *3043:A 3.86039e-05
*RES
1 *2907:X *3043:A 42.6677 
*END

*D_NET *232 0.00929445
*CONN
*I *2953:A I *D sg13cmos5l_dlygate4sd3_1
*I *3044:A I *D sg13cmos5l_buf_1
*I *2875:Q O *D sg13cmos5l_dfrbpq_1
*CAP
1 *2953:A 0.000162139
2 *3044:A 0
3 *2875:Q 0.000162139
4 *232:10 0.00113193
5 *232:6 0.00448508
6 *232:4 0.00335315
7 *2953:A *251:33 0
8 *232:6 *237:14 0
9 *232:6 *237:18 0
10 *232:6 *251:33 0
11 *232:6 *251:39 0
12 *232:10 *233:12 0
13 *2880:CLK *232:6 0
14 *2954:A *2953:A 0
15 *159:52 *232:6 0
*RES
1 *2875:Q *232:4 20 
2 *232:4 *232:6 36.4414 
3 *232:6 *232:10 34.1934 
4 *232:10 *3044:A 40 
5 *2875:Q *2953:A 41.4008 
*END

*D_NET *233 0.00884523
*CONN
*I *3017:A I *D sg13cmos5l_dlygate4sd3_1
*I *3045:A I *D sg13cmos5l_buf_1
*I *2876:Q O *D sg13cmos5l_dfrbpq_1
*CAP
1 *3017:A 0
2 *3045:A 0
3 *2876:Q 0.000264175
4 *233:28 0.000264175
5 *233:12 0.000235392
6 *233:6 0.00368585
7 *233:4 0.00345046
8 *233:6 *2780:A 0
9 *233:6 *2823:A 0
10 *233:6 *2904:RESET_B 0
11 *233:6 *3047:A 0
12 *233:6 *236:16 0
13 *233:6 *241:18 0
14 *233:6 *335:10 0
15 *233:28 *2823:B_N 0.000234591
16 *233:28 *241:18 0
17 *2877:CLK *233:6 0
18 *2904:CLK *233:6 0
19 *2906:A *233:6 0
20 *2999:A *233:6 0.00024216
21 *133:24 *233:6 0
22 *133:49 *233:6 0.000468424
23 *140:10 *233:6 0
24 *230:10 *233:6 0
25 *232:10 *233:12 0
*RES
1 *2876:Q *233:4 20 
2 *233:4 *233:6 36.6577 
3 *233:6 *233:12 43.0694 
4 *233:12 *3045:A 20 
5 *2876:Q *233:28 42.7089 
6 *233:28 *3017:A 40 
*END

*D_NET *234 0.0284289
*CONN
*I *2825:A1 I *D sg13cmos5l_mux2_1
*I *2846:A0 I *D sg13cmos5l_mux2_1
*I *2830:A0 I *D sg13cmos5l_mux2_1
*I *3034:X O *D sg13cmos5l_buf_1
*CAP
1 *2825:A1 0.00149937
2 *2846:A0 0.000209852
3 *2830:A0 0.000568378
4 *3034:X 2.58913e-05
5 *234:24 0.0015225
6 *234:20 0.00224365
7 *234:18 0.00686072
8 *234:16 0.00686072
9 *234:14 0.00131595
10 *234:8 0.00134184
11 *2825:A1 *2825:A0 0.00017729
12 *2825:A1 *245:56 0
13 *2825:A1 *260:58 0
14 *2830:A0 *245:26 0
15 *2830:A0 *258:10 0
16 *2830:A0 *270:23 0.000371323
17 *2846:A0 *259:44 0
18 *234:8 *265:12 4.75212e-05
19 *234:8 *276:16 4.78343e-05
20 *234:14 *244:32 0.000182624
21 *234:14 *245:20 0
22 *234:14 *309:32 0.000181521
23 *234:18 *245:20 0
24 *234:18 *245:22 0
25 *234:18 *245:56 0
26 *234:18 *247:52 0
27 *234:18 *252:88 0.000235018
28 *234:18 *327:10 0.000554511
29 *234:24 *270:8 0.000274419
30 *2751:A *234:14 0
31 *2830:S *2830:A0 0
32 *2908:adc_ref[1] *234:18 0
33 *2908:adc_ref[6] *2846:A0 0
34 *2991:A *234:24 0
35 *92:10 *234:14 0
36 *93:10 *234:14 0.000288936
37 *96:10 *234:14 0
38 *96:46 *234:14 7.64739e-05
39 *113:12 *234:14 0
40 *114:29 *234:18 0
41 *115:20 *234:14 7.5468e-05
42 *116:14 *234:14 0
43 *132:23 *2830:A0 0.000607236
44 *132:23 *2846:A0 0.000340894
45 *164:83 *2830:A0 0
46 *212:44 *234:18 0.00103482
47 *217:8 *234:18 0.000288675
48 *223:25 *234:18 0.00119543
*RES
1 *3034:X *234:8 40.3193 
2 *234:8 *234:14 32.9368 
3 *234:14 *234:16 20 
4 *234:16 *234:18 70.555 
5 *234:18 *234:20 20 
6 *234:20 *234:24 27.8898 
7 *234:24 *2830:A0 46.6023 
8 *234:24 *2846:A0 42.6471 
9 *234:20 *2825:A1 36.377 
*END

*D_NET *235 0.010605
*CONN
*I *3003:A I *D sg13cmos5l_dlygate4sd3_1
*I *3046:A I *D sg13cmos5l_buf_1
*I *2877:Q O *D sg13cmos5l_dfrbpq_1
*CAP
1 *3003:A 0
2 *3046:A 0
3 *2877:Q 0.000143436
4 *235:29 0.000355339
5 *235:18 0.0030703
6 *235:6 0.00356907
7 *235:6 *276:16 0
8 *235:6 *298:18 0
9 *235:18 *2998:A 0.000389048
10 *235:18 *3047:A 0
11 *235:18 *3051:A 0.0006303
12 *235:18 *238:20 0
13 *235:18 *239:22 0
14 *235:18 *265:12 0
15 *235:18 *276:16 0.000101616
16 *235:29 *238:14 0
17 *235:29 *276:24 0
18 uio_oe[0] *235:29 0
19 uio_oe[1] *235:6 0.00012975
20 uio_oe[1] *235:18 0.000145283
21 uio_out[0] *235:18 0.000274863
22 uio_out[1] *235:18 7.96596e-05
23 uio_out[2] *235:18 0.000209918
24 uio_out[5] *235:18 0
25 uio_out[7] *235:18 0.000749402
26 uo_out[4] *235:18 8.02595e-05
27 uo_out[5] *235:18 0.000209747
28 uo_out[6] *235:18 0.000177257
29 uo_out[7] *235:18 0.000144767
30 *2814:A2 *235:29 0
31 *2814:B1 *235:29 0
32 *57:10 *235:6 0.000144942
33 *57:10 *235:29 0
34 *158:37 *235:29 0
*RES
1 *2877:Q *235:6 21.6171 
2 *235:6 *235:18 32.5377 
3 *235:18 *3046:A 20 
4 *235:6 *235:29 43.811 
5 *235:29 *3003:A 20 
*END

*D_NET *236 0.00945258
*CONN
*I *3005:A I *D sg13cmos5l_dlygate4sd3_1
*I *3047:A I *D sg13cmos5l_buf_1
*I *2878:Q O *D sg13cmos5l_dfrbpq_1
*CAP
1 *3005:A 0
2 *3047:A 0.00234032
3 *2878:Q 0.00016271
4 *236:22 0.00266121
5 *236:16 0.000742986
6 *236:8 0.000584803
7 *3047:A *3051:A 0
8 *3047:A *239:22 0.00140942
9 *3047:A *276:24 0.000177028
10 *236:8 *335:10 0
11 *236:16 *2904:RESET_B 0
12 *236:16 *238:14 0.000289258
13 *236:16 *335:10 0.000436567
14 *236:22 *240:8 0
15 *236:22 *265:18 0
16 *236:22 *276:28 0
17 uio_out[6] *3047:A 0.000403609
18 *2882:CLK *236:8 0.000142398
19 *2906:A *3047:A 0
20 *3008:A *236:8 0
21 *3043:A *3047:A 0
22 *133:24 *236:8 0.000102272
23 *133:26 *236:16 0
24 *133:49 *236:16 0
25 *133:49 *236:22 0
26 *133:70 *236:8 0
27 *230:10 *3047:A 0
28 *233:6 *3047:A 0
29 *233:6 *236:16 0
30 *235:18 *3047:A 0
*RES
1 *2878:Q *236:8 21.751 
2 *236:8 *236:16 44.4702 
3 *236:16 *236:22 43.0694 
4 *236:22 *3047:A 44.6467 
5 *236:8 *3005:A 20 
*END

*D_NET *237 0.00824625
*CONN
*I *3019:A I *D sg13cmos5l_dlygate4sd3_1
*I *3048:A I *D sg13cmos5l_buf_1
*I *2879:Q O *D sg13cmos5l_dfrbpq_1
*CAP
1 *3019:A 0
2 *3048:A 0
3 *2879:Q 0.000263647
4 *237:22 0.00131049
5 *237:18 0.00361512
6 *237:14 0.00235128
7 *237:10 0.000310302
8 *237:18 *238:10 0
9 *2818:A2 *237:10 0.000395396
10 *2818:B1 *237:10 0
11 *59:10 *237:10 0
12 *158:10 *237:10 0
13 *232:6 *237:14 0
14 *232:6 *237:18 0
*RES
1 *2879:Q *237:10 42.344 
2 *237:10 *237:14 20.5356 
3 *237:14 *237:18 45.4101 
4 *237:18 *237:22 36.171 
5 *237:22 *3048:A 20 
6 *237:14 *3019:A 20 
*END

*D_NET *238 0.0106148
*CONN
*I *3007:A I *D sg13cmos5l_dlygate4sd3_1
*I *3049:A I *D sg13cmos5l_buf_1
*I *2880:Q O *D sg13cmos5l_dfrbpq_1
*CAP
1 *3007:A 3.77166e-05
2 *3049:A 0
3 *2880:Q 0.000217105
4 *238:20 0.00205363
5 *238:14 0.00349556
6 *238:10 0.00169674
7 *238:10 *265:18 0
8 *238:14 *240:8 0
9 *238:14 *265:18 0
10 *238:14 *276:24 0
11 *238:14 *279:8 0
12 *238:14 *288:8 0
13 *238:20 *298:18 0.000696446
14 uio_oe[0] *238:14 0
15 uio_oe[1] *238:20 0.000372058
16 uio_out[0] *238:20 0
17 uio_out[1] *238:20 0
18 uio_out[2] *238:20 0
19 uio_out[5] *238:20 0.00021012
20 uio_out[7] *238:14 0
21 uio_out[7] *238:20 0
22 uo_out[5] *238:20 0
23 uo_out[6] *238:20 0.000128576
24 uo_out[7] *238:20 0
25 *2814:A2 *238:14 0
26 *58:10 *238:14 0.000501044
27 *59:10 *238:10 0.000234224
28 *59:10 *238:14 0.000501131
29 *133:26 *238:14 0
30 *133:62 *238:14 0
31 *133:94 *238:14 0
32 *140:10 *238:14 0.000181192
33 *152:10 *238:20 0
34 *235:18 *238:20 0
35 *235:29 *238:14 0
36 *236:16 *238:14 0.000289258
37 *237:18 *238:10 0
*RES
1 *2880:Q *238:10 42.4926 
2 *238:10 *238:14 36.6654 
3 *238:14 *238:20 42.3922 
4 *238:20 *3049:A 40 
5 *238:10 *3007:A 40.3193 
*END

*D_NET *239 0.00690809
*CONN
*I *3001:A I *D sg13cmos5l_dlygate4sd3_1
*I *3050:A I *D sg13cmos5l_buf_1
*I *2881:Q O *D sg13cmos5l_dfrbpq_1
*CAP
1 *3001:A 0
2 *3050:A 0
3 *2881:Q 0.000313511
4 *239:22 0.000804867
5 *239:16 0.00189315
6 *239:10 0.0014018
7 *239:10 *2816:A1 0
8 *239:16 *287:14 0
9 *239:22 *3051:A 0.00108534
10 *3047:A *239:22 0.00140942
11 *58:10 *239:10 0
12 *133:70 *239:16 0
13 *136:8 *239:10 0
14 *230:10 *239:16 0
15 *235:18 *239:22 0
*RES
1 *2881:Q *239:10 23.0591 
2 *239:10 *239:16 31.7008 
3 *239:16 *239:22 30.0013 
4 *239:22 *3050:A 20 
5 *239:10 *3001:A 20 
*END

*D_NET *240 0.00674527
*CONN
*I *2998:A I *D sg13cmos5l_dlygate4sd3_1
*I *3051:A I *D sg13cmos5l_buf_1
*I *2882:Q O *D sg13cmos5l_dfrbpq_1
*CAP
1 *2998:A 0.000284755
2 *3051:A 0.00155279
3 *2882:Q 0.000216857
4 *240:10 0.00183755
5 *240:8 0.000216857
6 *2998:A *265:12 0
7 *2998:A *276:16 0
8 *2998:A *276:24 0
9 *3051:A *276:24 0
10 *240:8 *265:18 0
11 *240:8 *278:10 0
12 uio_out[6] *3051:A 0.000403609
13 uio_out[6] *240:8 0
14 *3047:A *3051:A 0
15 *62:8 *240:8 0
16 *133:49 *240:8 0.00012816
17 *235:18 *2998:A 0.000389048
18 *235:18 *3051:A 0.0006303
19 *236:22 *240:8 0
20 *238:14 *240:8 0
21 *239:22 *3051:A 0.00108534
*RES
1 *2882:Q *240:8 42.0806 
2 *240:8 *240:10 20 
3 *240:10 *3051:A 35.3779 
4 *240:10 *2998:A 23.0488 
*END

*D_NET *241 0.0100268
*CONN
*I *2813:A I *D sg13cmos5l_nor2b_1
*I *2809:B_N I *D sg13cmos5l_nor2b_1
*I *2819:A I *D sg13cmos5l_nor2b_1
*I *2817:A I *D sg13cmos5l_nor2b_1
*I *2811:A I *D sg13cmos5l_nor2b_1
*I *2815:A I *D sg13cmos5l_nor2b_1
*I *2823:A I *D sg13cmos5l_nor2b_1
*I *2780:A I *D sg13cmos5l_inv_1
*I *2919:X O *D sg13cmos5l_buf_1
*CAP
1 *2813:A 0.000136498
2 *2809:B_N 0
3 *2819:A 0.000821785
4 *2817:A 0.000191799
5 *2811:A 0.000145817
6 *2815:A 4.73516e-05
7 *2823:A 0.000355303
8 *2780:A 0.000260834
9 *2919:X 0
10 *241:66 0.00121214
11 *241:53 0.000480537
12 *241:42 0.000754293
13 *241:27 0.000926082
14 *241:18 0.000781842
15 *241:12 0.000785902
16 *241:4 0.000401392
17 *2811:A *333:22 0.000177406
18 *2815:A *250:58 8.02924e-05
19 *2817:A *2817:B_N 1.54556e-05
20 *2817:A *327:20 0
21 *2817:A *328:22 0
22 *2817:A *330:28 0
23 *2819:A *2901:RESET_B 0
24 *2819:A *250:75 0
25 *2823:A *2823:B_N 1.54556e-05
26 *241:18 *2823:B_N 0
27 *241:42 *2877:RESET_B 0
28 *241:53 *330:28 0
29 *241:66 *250:75 0
30 *2821:A *2811:A 0
31 *2876:CLK *2815:A 0
32 *2910:A *2819:A 0
33 *57:10 *2823:A 0
34 *57:10 *241:42 0
35 *60:8 *241:42 0
36 *115:34 *2813:A 0.000242203
37 *115:34 *241:18 0
38 *115:34 *241:42 0
39 *133:8 *241:12 0
40 *133:24 *2780:A 0
41 *134:8 *241:53 0
42 *134:8 *241:66 0
43 *135:14 *2780:A 0.000177373
44 *135:14 *241:18 0.000404147
45 *137:8 *2817:A 0.000144691
46 *138:8 *2819:A 0
47 *140:10 *2823:A 0.000144942
48 *143:24 *2823:A 0
49 *143:24 *241:12 0
50 *143:24 *241:18 0
51 *159:52 *2819:A 0.000501044
52 *196:10 *2819:A 0.000822227
53 *233:6 *2780:A 0
54 *233:6 *2823:A 0
55 *233:6 *241:18 0
56 *233:28 *241:18 0
*RES
1 *2919:X *241:4 20 
2 *241:4 *241:12 42.9561 
3 *241:12 *241:18 5.5626 
4 *241:18 *2780:A 22.6986 
5 *241:18 *241:27 20 
6 *241:27 *2823:A 43.5844 
7 *241:27 *241:42 5.047 
8 *241:42 *2815:A 40.5356 
9 *241:42 *241:53 1.339 
10 *241:53 *2811:A 41.5038 
11 *241:53 *241:66 1.8334 
12 *241:66 *2817:A 41.9982 
13 *241:66 *2819:A 49.9086 
14 *241:12 *2809:B_N 20 
15 *241:4 *2813:A 22.3175 
*END

*D_NET *242 0.0157041
*CONN
*I *2843:S I *D sg13cmos5l_mux2_1
*I *2845:S I *D sg13cmos5l_mux2_1
*I *2844:S I *D sg13cmos5l_mux2_1
*I *2807:S I *D sg13cmos5l_mux2_1
*I *2808:S I *D sg13cmos5l_mux2_1
*I *2850:S I *D sg13cmos5l_mux2_1
*I *2806:S I *D sg13cmos5l_mux2_1
*I *2842:S I *D sg13cmos5l_mux2_1
*I *2920:X O *D sg13cmos5l_buf_1
*CAP
1 *2843:S 0.000285511
2 *2845:S 0
3 *2844:S 0.00024326
4 *2807:S 0
5 *2808:S 3.2711e-05
6 *2850:S 0.000348996
7 *2806:S 0.000272734
8 *2842:S 0.000258935
9 *2920:X 0.000591867
10 *242:90 0.000592735
11 *242:72 0.000489712
12 *242:66 0.000893037
13 *242:57 0.000192776
14 *242:44 0.000830869
15 *242:31 0.00129416
16 *242:29 0.00147308
17 *242:12 0.0014771
18 *2806:S *276:47 0
19 *2808:S *2850:A0 0
20 *2842:S *2863:D 0
21 *2842:S *257:45 0
22 *2842:S *273:10 0.000183244
23 *2843:S *277:10 0.000160013
24 *2843:S *277:18 0.000766108
25 *2843:S *280:8 0.000235971
26 *2844:S *2808:A0 0
27 *2850:S *2850:A0 0
28 *242:12 *2863:RESET_B 0.000144485
29 *242:12 *260:22 0
30 *242:29 *255:16 0.000128688
31 *242:29 *255:26 0.000371608
32 *242:29 *268:10 0
33 *242:29 *268:29 0
34 *242:31 *255:26 0.000112506
35 *242:31 *268:10 0
36 *242:31 *276:47 0
37 *242:66 *2808:A0 0
38 *242:66 *2850:A0 0
39 *242:72 *2836:A0 0
40 *242:72 *2836:A1 0
41 *242:72 *2844:A0 0
42 *242:72 *287:14 0
43 *242:90 *255:26 0
44 *242:90 *268:16 0.000553662
45 *2837:S *2842:S 7.92644e-05
46 *2844:A1 *2844:S 0
47 *2856:D *242:29 0
48 *2871:CLK *242:44 0.000395068
49 *2874:CLK *2806:S 0
50 *2993:A *242:12 0.000285241
51 *81:10 *242:44 0
52 *141:30 *242:12 0
53 *141:32 *242:12 0
54 *141:43 *2842:S 0
55 *141:43 *242:29 0
56 *162:10 *2842:S 7.51285e-05
57 *162:10 *242:12 0.000760265
58 *162:10 *242:29 0.000425501
59 *162:27 *242:29 0.000555736
60 *162:40 *2843:S 0
61 *162:40 *242:90 0
62 *163:10 *2842:S 0
63 *163:20 *242:31 0
64 *163:33 *242:44 0.000427074
65 *164:34 *2844:S 0
66 *169:8 *2806:S 0
67 *171:28 *2850:S 0.000182023
68 *171:28 *242:44 0.000585012
69 *172:12 *2806:S 0
70 *199:8 *242:72 0
*RES
1 *2920:X *242:12 47.0761 
2 *242:12 *2842:S 42.5544 
3 *242:12 *242:29 27.9001 
4 *242:29 *242:31 5.2942 
5 *242:31 *2806:S 23.0797 
6 *242:31 *242:44 27.519 
7 *242:44 *2850:S 44.3157 
8 *242:44 *242:57 20 
9 *242:57 *2808:S 20.3193 
10 *242:57 *242:66 1.6171 
11 *242:66 *242:72 46.0358 
12 *242:72 *2807:S 20 
13 *242:66 *2844:S 22.266 
14 *242:29 *242:90 23.6359 
15 *242:90 *2845:S 40 
16 *242:90 *2843:S 44.3054 
*END

*D_NET *243 0.0113427
*CONN
*I *2847:S I *D sg13cmos5l_mux2_1
*I *2849:S I *D sg13cmos5l_mux2_1
*I *2848:S I *D sg13cmos5l_mux2_1
*I *2841:S I *D sg13cmos5l_mux2_1
*I *2840:S I *D sg13cmos5l_mux2_1
*I *2838:S I *D sg13cmos5l_mux2_1
*I *2839:S I *D sg13cmos5l_mux2_1
*I *2920:A I *D sg13cmos5l_buf_1
*I *2921:X O *D sg13cmos5l_buf_1
*CAP
1 *2847:S 0
2 *2849:S 0.000567052
3 *2848:S 6.94276e-05
4 *2841:S 4.87933e-05
5 *2840:S 3.02081e-05
6 *2838:S 0.000475082
7 *2839:S 0
8 *2920:A 0.000159502
9 *2921:X 0.000118831
10 *243:93 0.00102407
11 *243:83 0.000458833
12 *243:77 0.00113631
13 *243:60 0.00152816
14 *243:49 0.000994615
15 *243:25 0.000509484
16 *243:21 0.00118682
17 *243:10 0.000880637
18 *2838:S *258:64 0
19 *2838:S *266:12 0
20 *2848:S *256:44 0
21 *2849:S *2848:A1 0
22 *2849:S *2870:RESET_B 0
23 *2849:S *260:36 0
24 *2920:A *260:22 0
25 *243:21 *245:41 0
26 *243:21 *266:18 0.000821986
27 *243:49 *2860:D 0
28 *243:49 *2864:RESET_B 0
29 *243:49 *245:41 0
30 *243:49 *261:12 0
31 *243:49 *266:8 0
32 *243:49 *266:18 0.000183454
33 *243:60 *2847:A0 0
34 *243:60 *2862:D 0.00024222
35 *243:60 *2864:RESET_B 0
36 *243:77 *2847:A0 0
37 *243:77 *2864:RESET_B 0.000177186
38 *243:77 *2872:RESET_B 0
39 *243:77 *255:26 0
40 *243:77 *255:37 0
41 *243:77 *255:52 0
42 *243:77 *260:36 0
43 *243:83 *2847:A0 0.000109623
44 *243:83 *2866:D 0
45 *243:83 *256:44 0
46 *243:93 *2847:A0 0
47 *243:93 *2847:A1 0
48 *243:93 *255:37 0
49 *243:93 *256:44 0
50 *2840:A1 *243:60 0
51 *2841:A1 *243:60 0
52 *2852:CLK *2838:S 0
53 *2864:D *243:77 0
54 *2866:CLK *243:77 0
55 *2869:D *2849:S 0
56 *2870:D *2849:S 0.000242281
57 *2872:CLK *243:93 0
58 *2908:dac_out[6] *243:77 0
59 *2908:dac_out[13] *2849:S 0.000331096
60 *2995:A *2840:S 0
61 *2995:A *2841:S 0
62 *2995:A *243:60 0
63 *76:8 *243:49 0
64 *162:10 *2920:A 0
65 *164:8 *2920:A 0
66 *164:8 *243:10 0
67 *164:83 *2838:S 0
68 *166:26 *2838:S 0
69 *173:24 *243:49 0
70 *187:10 *243:77 4.70575e-05
*RES
1 *2921:X *243:10 41.4111 
2 *243:10 *2920:A 41.5606 
3 *243:10 *243:21 7.2718 
4 *243:21 *243:25 20.3193 
5 *243:25 *2839:S 20 
6 *243:25 *2838:S 24.7998 
7 *243:21 *243:49 24.3199 
8 *243:49 *2840:S 20.3502 
9 *243:49 *243:60 4.3466 
10 *243:60 *2841:S 20.5974 
11 *243:60 *243:77 30.5163 
12 *243:77 *243:83 20.9013 
13 *243:83 *243:93 4.06593 
14 *243:93 *2848:S 20.8858 
15 *243:93 *2849:S 26.7924 
16 *243:83 *2847:S 20 
*END

*D_NET *244 0.0106157
*CONN
*I *2753:A_N I *D sg13cmos5l_nand2b_1
*I *2747:B_N I *D sg13cmos5l_nor2b_1
*I *2767:A I *D sg13cmos5l_nor2_1
*I *2744:A_N I *D sg13cmos5l_nand2b_1
*I *2769:A I *D sg13cmos5l_nand2_1
*I *2764:A I *D sg13cmos5l_nand2_1
*I *2803:A2 I *D sg13cmos5l_a21oi_1
*I *2765:A_N I *D sg13cmos5l_nand2b_1
*I *2922:X O *D sg13cmos5l_buf_1
*CAP
1 *2753:A_N 0
2 *2747:B_N 0
3 *2767:A 3.02081e-05
4 *2744:A_N 8.49579e-05
5 *2769:A 0.000240806
6 *2764:A 7.35636e-05
7 *2803:A2 0.000129994
8 *2765:A_N 0.000156789
9 *2922:X 0.000239504
10 *244:70 0.000663179
11 *244:59 0.000688095
12 *244:46 0.000735546
13 *244:44 0.000651186
14 *244:32 0.000706933
15 *244:22 0.000638929
16 *244:18 0.00131207
17 *244:8 0.00139261
18 *2764:A *250:31 0.000111839
19 *2764:A *328:22 1.51e-05
20 *2765:A_N *2813:B_N 0
21 *2769:A *2978:A 0
22 *2769:A *249:74 0
23 *2769:A *296:8 0.000234224
24 *2769:A *306:38 0
25 *2769:A *327:20 0.000176571
26 *2769:A *328:22 0
27 *2803:A2 *249:97 0
28 *2803:A2 *295:31 0.000129335
29 *2803:A2 *295:41 1.54008e-05
30 *244:8 *248:57 0
31 *244:18 *2759:B 0
32 *244:18 *3025:A 0
33 *244:18 *246:8 0
34 *244:18 *248:33 0
35 *244:18 *248:57 0
36 *244:18 *249:10 7.96263e-05
37 *244:18 *256:10 0
38 *244:18 *307:39 0.000182266
39 *244:32 *2775:C 0
40 *244:44 *2775:C 0
41 *244:46 *2893:RESET_B 0
42 *244:46 *249:113 0
43 *244:59 *249:84 0
44 *244:70 *249:74 0
45 *244:70 *249:84 0
46 *244:70 *296:8 0.000450579
47 *2750:A1 *244:32 0
48 *2750:A1 *244:44 0.000165763
49 *2754:A1 *244:18 0
50 *2754:A2 *244:8 0
51 *2754:A2 *244:18 0
52 *2766:A1 *244:70 0
53 *2768:B *244:32 0
54 *2775:A *244:18 0
55 *2775:A *244:22 0.000224795
56 *2775:A *244:32 0.000160168
57 *2926:A *244:18 1.57858e-05
58 *95:22 *244:32 0.000230149
59 *96:46 *244:32 0
60 *106:10 *2765:A_N 0
61 *106:10 *2803:A2 0
62 *106:10 *244:46 0
63 *112:20 *244:22 1.54008e-05
64 *112:20 *244:32 0.000208615
65 *191:33 *244:18 0.000273098
66 *224:20 *244:59 0
67 *224:20 *244:70 0
68 *234:14 *244:32 0.000182624
*RES
1 *2922:X *244:8 22.7398 
2 *244:8 *244:18 31.8141 
3 *244:18 *244:22 21.6171 
4 *244:22 *244:32 44.944 
5 *244:32 *244:44 2.6574 
6 *244:44 *244:46 3.3475 
7 *244:46 *2765:A_N 21.5347 
8 *244:46 *244:59 21.5862 
9 *244:59 *2803:A2 41.1845 
10 *244:59 *244:70 3.5638 
11 *244:70 *2764:A 40.7519 
12 *244:70 *2769:A 42.5235 
13 *244:44 *2744:A_N 21.133 
14 *244:32 *2767:A 20.3502 
15 *244:22 *2747:B_N 20 
16 *244:8 *2753:A_N 20 
*END

*D_NET *245 0.0388738
*CONN
*I *2826:A1 I *D sg13cmos5l_mux2_1
*I *2847:A0 I *D sg13cmos5l_mux2_1
*I *2831:A0 I *D sg13cmos5l_mux2_1
*I *3035:X O *D sg13cmos5l_buf_1
*CAP
1 *2826:A1 0
2 *2847:A0 0.00161837
3 *2831:A0 4.79656e-05
4 *3035:X 2.41961e-05
5 *245:56 0.00224907
6 *245:41 0.00205803
7 *245:26 0.00193934
8 *245:22 0.00796077
9 *245:20 0.00801143
10 *245:8 0.00377563
11 *2831:A0 *258:18 0
12 *2847:A0 *2866:D 0
13 *2847:A0 *255:26 0
14 *2847:A0 *255:37 0
15 *2847:A0 *256:44 0
16 *2847:A0 *261:12 0
17 *245:20 *248:10 0
18 *245:20 *295:59 0.00012778
19 *245:20 *312:33 0
20 *245:20 *327:10 0.000554801
21 *245:26 *256:26 0
22 *245:26 *258:14 0
23 *245:26 *258:18 0
24 *245:26 *258:22 0
25 *245:26 *270:23 0
26 *245:41 *258:22 0
27 *245:56 *256:64 0.00225014
28 *245:56 *259:18 0
29 *245:56 *260:58 0.00160341
30 *2746:C *245:20 0
31 *2777:B *245:20 0.000557131
32 *2825:A1 *245:56 0
33 *2830:A0 *245:26 0
34 *2840:A1 *2847:A0 0.000141952
35 *2851:D *245:26 0.000306673
36 *2864:D *2847:A0 0
37 *2883:D *245:56 0
38 *2884:D *245:56 0
39 *2908:adc_ref[1] *245:56 0
40 *2973:A *245:20 0.000128293
41 *2995:A *2847:A0 0
42 *77:10 *2847:A0 0
43 *92:10 *245:20 0
44 *95:35 *245:20 7.66466e-05
45 *96:46 *245:20 0.000128358
46 *110:12 *245:20 0
47 *112:20 *245:20 0.000267283
48 *113:12 *245:20 0.000770441
49 *114:29 *245:20 0
50 *141:14 *245:26 0.000680205
51 *141:20 *2831:A0 0
52 *141:20 *245:26 1.54008e-05
53 *141:20 *245:41 0.0001122
54 *146:19 *245:20 0.00231905
55 *146:19 *245:22 0
56 *146:19 *245:56 0
57 *147:23 *245:20 0
58 *164:72 *2847:A0 0
59 *164:83 *2847:A0 0
60 *173:24 *2847:A0 0
61 *187:10 *2847:A0 0
62 *212:10 *245:20 0
63 *212:44 *245:20 0.00103963
64 *229:32 *245:56 0
65 *234:14 *245:20 0
66 *234:18 *245:20 0
67 *234:18 *245:22 0
68 *234:18 *245:56 0
69 *243:21 *245:41 0
70 *243:49 *245:41 0
71 *243:60 *2847:A0 0
72 *243:77 *2847:A0 0
73 *243:83 *2847:A0 0.000109623
74 *243:93 *2847:A0 0
*RES
1 *3035:X *245:8 40.3193 
2 *245:8 *245:20 44.187 
3 *245:20 *245:22 36.6886 
4 *245:22 *245:26 35.0277 
5 *245:26 *2831:A0 20.5974 
6 *245:26 *245:41 44.0685 
7 *245:41 *2847:A0 34.4195 
8 *245:22 *245:56 44.2771 
9 *245:56 *2826:A1 20 
*END

*D_NET *246 0.0155438
*CONN
*I *2773:A_N I *D sg13cmos5l_nand2b_1
*I *2772:A I *D sg13cmos5l_nand2_1
*I *2755:A I *D sg13cmos5l_nand2_1
*I *2791:A1 I *D sg13cmos5l_a21oi_1
*I *2794:A1 I *D sg13cmos5l_a21oi_1
*I *2796:A1 I *D sg13cmos5l_a21oi_1
*I *2800:A1 I *D sg13cmos5l_a21oi_1
*I *2770:A_N I *D sg13cmos5l_nand2b_1
*I *2923:X O *D sg13cmos5l_buf_1
*CAP
1 *2773:A_N 0
2 *2772:A 0
3 *2755:A 0
4 *2791:A1 2.42407e-05
5 *2794:A1 0.000423483
6 *2796:A1 0
7 *2800:A1 3.3173e-05
8 *2770:A_N 2.36422e-05
9 *2923:X 0.00050808
10 *246:115 0.000291495
11 *246:99 0.000246872
12 *246:89 0.000388746
13 *246:74 0.000368825
14 *246:63 0.00130451
15 *246:53 0.00117273
16 *246:44 0.000181029
17 *246:29 0.000511851
18 *246:14 0.000321291
19 *246:12 0.00084651
20 *246:8 0.00155752
21 *2791:A1 *2791:A2 4.77425e-05
22 *2794:A1 *2794:A2 0.000371659
23 *2794:A1 *2899:RESET_B 0
24 *2800:A1 *306:24 4.7803e-05
25 *246:8 *247:52 0.00050124
26 *246:8 *252:67 0.000341119
27 *246:8 *252:80 0.000213153
28 *246:8 *256:10 0
29 *246:12 *249:48 0
30 *246:12 *330:20 0
31 *246:29 *249:72 0
32 *246:29 *306:24 0.000192865
33 *246:29 *324:36 0
34 *246:44 *2796:A2 4.78521e-05
35 *246:53 *247:52 0.00101558
36 *246:53 *252:80 0.000930673
37 *246:53 *328:38 0
38 *246:63 *2791:A2 0
39 *246:63 *313:14 0
40 *246:63 *330:41 0
41 *246:115 *313:14 0
42 *2771:A2 *2770:A_N 0
43 *2798:C *246:29 0
44 *2800:B1 *246:29 0
45 *2800:B1 *246:44 0.000446767
46 *2899:D *2794:A1 0
47 *89:98 *246:29 8.00842e-05
48 *99:8 *246:99 1.53326e-05
49 *99:10 *246:89 0
50 *99:10 *246:99 0.000608636
51 *110:12 *246:63 0.00104378
52 *110:12 *246:74 0
53 *110:12 *246:89 0
54 *110:20 *246:12 0
55 *114:29 *246:8 0
56 *116:36 *246:44 0.000393736
57 *123:8 *246:63 0
58 *123:8 *246:74 0
59 *123:8 *246:89 0
60 *126:10 *246:44 4.78521e-05
61 *151:27 *246:44 0
62 *157:11 *246:99 0
63 *157:17 *246:99 0
64 *197:22 *246:115 0
65 *206:8 *246:89 0.000234726
66 *206:8 *246:99 0.000128576
67 *207:8 *246:63 0.000395568
68 *215:10 *246:29 0.000235055
69 *220:14 *246:8 0
70 *244:18 *246:8 0
*RES
1 *2923:X *246:8 46.0358 
2 *246:8 *246:12 30.0528 
3 *246:12 *246:14 20 
4 *246:14 *2770:A_N 40.3193 
5 *246:14 *246:29 23.3578 
6 *246:29 *2800:A1 20.3193 
7 *246:29 *246:44 42.8943 
8 *246:44 *2796:A1 20 
9 *246:8 *246:53 24.7998 
10 *246:53 *246:63 49.3318 
11 *246:63 *2794:A1 24.2127 
12 *246:63 *246:74 21.8334 
13 *246:74 *2791:A1 40.3193 
14 *246:74 *246:89 21.9055 
15 *246:89 *246:99 43.4608 
16 *246:99 *2755:A 20 
17 *246:89 *2772:A 20 
18 *246:53 *246:115 43.3475 
19 *246:115 *2773:A_N 20 
*END

*D_NET *247 0.0115056
*CONN
*I *2758:A I *D sg13cmos5l_nand2_1
*I *2752:A I *D sg13cmos5l_nand2_1
*I *2761:A I *D sg13cmos5l_nand2_1
*I *2762:A_N I *D sg13cmos5l_nand2b_1
*I *2788:A1 I *D sg13cmos5l_a21oi_1
*I *2756:A_N I *D sg13cmos5l_nand2b_1
*I *2784:A1 I *D sg13cmos5l_a21oi_1
*I *2924:X O *D sg13cmos5l_buf_1
*CAP
1 *2758:A 4.08322e-05
2 *2752:A 0.00013718
3 *2761:A 0.000129929
4 *2762:A_N 0
5 *2788:A1 4.74172e-05
6 *2756:A_N 5.46894e-05
7 *2784:A1 0
8 *2924:X 0
9 *247:83 0.000439508
10 *247:52 0.00125082
11 *247:41 0.00149463
12 *247:32 0.000674097
13 *247:14 0.000905018
14 *247:8 0.0007691
15 *247:4 0.000433207
16 *2756:A_N *252:67 8.02379e-05
17 *2788:A1 *321:14 8.02924e-05
18 *247:14 *2956:A 0
19 *247:14 *249:36 0
20 *247:32 *2976:A 0
21 *247:32 *320:23 0
22 *247:41 *252:67 6.44205e-05
23 *247:52 *252:88 0
24 *247:52 *321:14 0
25 *247:52 *322:35 0
26 *247:52 *328:38 0
27 *247:83 *2924:A 0
28 *2754:A1 *2752:A 0
29 *2762:B *247:14 6.46834e-05
30 *2762:B *247:32 1.54008e-05
31 *2763:A1 *247:14 7.51285e-05
32 *2782:B *2752:A 0
33 *2784:B1 *247:32 0
34 *2784:B1 *247:41 1.54556e-05
35 *2785:A *247:32 1.54008e-05
36 *2785:A *247:41 0
37 *2787:C *247:14 0.000563458
38 *2787:C *247:32 4.77425e-05
39 *2790:C *2752:A 0
40 *2790:C *2761:A 0
41 *2790:C *247:83 0
42 *89:42 *247:8 0.000177373
43 *101:22 *247:32 0
44 *103:8 *2761:A 0.00023464
45 *103:8 *247:14 0.000319022
46 *114:29 *247:52 0.000607119
47 *118:10 *247:32 8.01178e-05
48 *120:12 *247:32 0.000129592
49 *143:43 *247:32 0
50 *160:18 *2756:A_N 0
51 *160:18 *247:32 0.000181192
52 *160:18 *247:41 0
53 *161:70 *2788:A1 0
54 *197:46 *247:8 0
55 *197:46 *247:14 0.000498643
56 *197:52 *2752:A 0.000234224
57 *197:52 *247:83 0.00012816
58 *219:8 *247:52 0
59 *223:25 *247:52 0
60 *225:12 *2761:A 0
61 *234:18 *247:52 0
62 *246:8 *247:52 0.00050124
63 *246:53 *247:52 0.00101558
*RES
1 *2924:X *247:4 20 
2 *247:4 *247:8 21.8334 
3 *247:8 *247:14 25.6135 
4 *247:14 *247:32 44.4342 
5 *247:32 *2784:A1 20 
6 *247:32 *247:41 2.1836 
7 *247:41 *2756:A_N 20.5356 
8 *247:41 *247:52 34.6878 
9 *247:52 *2788:A1 40.5356 
10 *247:14 *2762:A_N 20 
11 *247:8 *2761:A 41.6583 
12 *247:4 *247:83 22.6162 
13 *247:83 *2752:A 41.4111 
14 *247:83 *2758:A 40.3193 
*END

*D_NET *248 0.00827236
*CONN
*I *2924:A I *D sg13cmos5l_buf_1
*I *2922:A I *D sg13cmos5l_buf_1
*I *2759:A_N I *D sg13cmos5l_nand2b_1
*I *2923:A I *D sg13cmos5l_buf_1
*I *2778:A I *D sg13cmos5l_and2_1
*I *2925:X O *D sg13cmos5l_buf_1
*CAP
1 *2924:A 0.000526264
2 *2922:A 0
3 *2759:A_N 0
4 *2923:A 0
5 *2778:A 6.98645e-05
6 *2925:X 0.000161074
7 *248:57 0.00124108
8 *248:46 0.00174332
9 *248:33 0.000372685
10 *248:25 0.00151684
11 *248:10 0.00034659
12 *248:10 *254:12 0
13 *248:10 *308:10 0
14 *248:25 *309:22 0.000114183
15 *248:33 *307:39 0
16 *248:46 *309:8 0
17 *248:46 *309:22 0.000163819
18 *248:57 *2759:B 1.54008e-05
19 *2749:D *248:33 4.77425e-05
20 *2777:B *248:10 0.000182626
21 *2777:B *248:25 0.00021498
22 *2931:A *248:57 0
23 *94:12 *248:10 0.000288777
24 *94:12 *248:25 0.00023782
25 *94:12 *248:33 0
26 *113:31 *248:33 0.00023716
27 *114:12 *2778:A 0
28 *114:12 *248:33 0.000289708
29 *143:24 *248:10 4.79124e-05
30 *143:41 *248:46 0.000342043
31 *160:28 *2778:A 0.00011247
32 *191:14 *248:46 0
33 *197:52 *2924:A 0
34 *244:8 *248:57 0
35 *244:18 *248:33 0
36 *244:18 *248:57 0
37 *245:20 *248:10 0
38 *247:83 *2924:A 0
*RES
1 *2925:X *248:10 42.1527 
2 *248:10 *2778:A 40.7519 
3 *248:10 *248:25 21.8437 
4 *248:25 *248:33 43.8213 
5 *248:33 *2923:A 20 
6 *248:25 *248:46 49.3524 
7 *248:46 *2759:A_N 20 
8 *248:46 *248:57 28.5181 
9 *248:57 *2922:A 40 
10 *248:57 *2924:A 46.077 
*END

*D_NET *249 0.0181123
*CONN
*I *2774:B1 I *D sg13cmos5l_a21oi_1
*I *2757:B1 I *D sg13cmos5l_a21oi_1
*I *2771:B1 I *D sg13cmos5l_a21oi_1
*I *2766:B1 I *D sg13cmos5l_a21oi_1
*I *2750:B1 I *D sg13cmos5l_a21o_1
*I *2809:A I *D sg13cmos5l_nor2b_1
*I *2760:B1 I *D sg13cmos5l_a21oi_1
*I *2754:B1 I *D sg13cmos5l_a21oi_1
*I *2926:X O *D sg13cmos5l_buf_1
*CAP
1 *2774:B1 0
2 *2757:B1 0
3 *2771:B1 2.55137e-05
4 *2766:B1 2.68585e-05
5 *2750:B1 0
6 *2809:A 0
7 *2760:B1 0.000114121
8 *2754:B1 8.77892e-05
9 *2926:X 0.000178731
10 *249:131 0.000285585
11 *249:113 0.000743257
12 *249:97 0.00108367
13 *249:84 0.000830988
14 *249:74 0.00157997
15 *249:72 0.00103001
16 *249:66 0.000455181
17 *249:56 0.000477294
18 *249:48 0.00104508
19 *249:36 0.00160725
20 *249:21 0.00119634
21 *249:10 0.000429947
22 *2754:B1 *2977:A 7.96263e-05
23 *2771:B1 *327:20 4.7803e-05
24 *249:10 *2759:B 0
25 *249:10 *252:40 0
26 *249:21 *252:40 0
27 *249:21 *309:8 0
28 *249:21 *310:18 0.00028843
29 *249:36 *2956:A 0.000587065
30 *249:36 *310:18 0.000236276
31 *249:56 *312:6 0
32 *249:56 *329:20 0
33 *249:66 *2797:A 0
34 *249:66 *331:20 0
35 *249:72 *2797:A 0
36 *249:72 *306:14 0
37 *249:72 *324:36 0.000556348
38 *249:74 *324:10 0.000288688
39 *249:74 *324:23 0.000236844
40 *249:74 *324:36 7.68089e-05
41 *249:74 *329:28 0.000159096
42 *249:84 *251:25 0
43 *249:84 *329:28 0.000395167
44 *249:113 *2744:B 0.000341436
45 *249:113 *2893:D 0
46 *249:113 *2927:A 0
47 *249:113 *250:19 0
48 *249:113 *251:25 2.19989e-05
49 *249:113 *254:12 0
50 *249:113 *295:12 0.000160033
51 *249:131 *331:20 0
52 *2745:A *2766:B1 4.77425e-05
53 *2745:A *249:97 0.000434752
54 *2750:A1 *249:113 0.000241258
55 *2757:A1 *249:56 0
56 *2757:A1 *249:66 3.24568e-05
57 *2757:A1 *249:72 1.54449e-05
58 *2761:B *249:36 0.000370194
59 *2769:A *249:74 0
60 *2771:A1 *2771:B1 4.7803e-05
61 *2774:A2 *249:36 0
62 *2774:A2 *249:48 0
63 *2789:C *249:36 0
64 *2803:A2 *249:97 0
65 *2812:A2 *249:84 0
66 *2893:CLK *249:97 0
67 *89:92 *249:56 7.51285e-05
68 *89:92 *249:66 0
69 *89:98 *249:72 0
70 *96:6 *249:113 3.0644e-05
71 *101:14 *2760:B1 0
72 *101:22 *2760:B1 0
73 *106:10 *249:97 0
74 *106:10 *249:113 0.000182872
75 *110:20 *249:48 0.000375412
76 *110:33 *249:48 0.00072
77 *114:12 *249:113 0
78 *115:20 *249:113 0
79 *115:26 *249:84 0.000144623
80 *116:14 *249:131 0
81 *116:59 *249:48 4.78356e-05
82 *116:80 *249:36 0.000289687
83 *116:80 *249:48 1.54008e-05
84 *117:10 *2760:B1 0.000143889
85 *117:10 *249:36 0
86 *122:16 *249:36 0
87 *122:16 *249:48 0
88 *131:8 *249:72 0
89 *131:8 *249:74 0
90 *133:8 *249:84 0
91 *157:55 *249:56 0
92 *160:28 *249:113 0
93 *191:33 *2754:B1 0.00014431
94 *215:10 *249:72 0
95 *224:20 *249:66 0
96 *225:12 *249:36 0
97 *244:18 *249:10 7.96263e-05
98 *244:46 *249:113 0
99 *244:59 *249:84 0
100 *244:70 *249:74 0
101 *244:70 *249:84 0
102 *246:12 *249:48 0
103 *246:29 *249:72 0
104 *247:14 *249:36 0
*RES
1 *2926:X *249:10 41.6274 
2 *249:10 *2754:B1 40.9682 
3 *249:10 *249:21 2.0806 
4 *249:21 *2760:B1 40.9682 
5 *249:21 *249:36 29.9086 
6 *249:36 *249:48 48.446 
7 *249:48 *249:56 42.9252 
8 *249:56 *249:66 41.236 
9 *249:66 *249:72 23.7595 
10 *249:72 *249:74 4.5526 
11 *249:74 *249:84 46.8289 
12 *249:84 *2809:A 40 
13 *249:74 *249:97 23.2342 
14 *249:97 *249:113 48.4048 
15 *249:113 *2750:B1 20 
16 *249:97 *2766:B1 20.3193 
17 *249:72 *249:131 42.6986 
18 *249:131 *2771:B1 40.3193 
19 *249:66 *2757:B1 20 
20 *249:36 *2774:B1 20 
*END

*D_NET *250 0.015517
*CONN
*I *2892:RESET_B I *D sg13cmos5l_dfrbpq_1
*I *2903:RESET_B I *D sg13cmos5l_dfrbpq_1
*I *2876:RESET_B I *D sg13cmos5l_dfrbpq_1
*I *2901:RESET_B I *D sg13cmos5l_dfrbpq_1
*I *2875:RESET_B I *D sg13cmos5l_dfrbpq_1
*I *2878:RESET_B I *D sg13cmos5l_dfrbpq_1
*I *2877:RESET_B I *D sg13cmos5l_dfrbpq_1
*I *2893:RESET_B I *D sg13cmos5l_dfrbpq_1
*I *2927:X O *D sg13cmos5l_buf_1
*CAP
1 *2892:RESET_B 0.000158592
2 *2903:RESET_B 0
3 *2876:RESET_B 0
4 *2901:RESET_B 0.00073456
5 *2875:RESET_B 2.56892e-05
6 *2878:RESET_B 0
7 *2877:RESET_B 0.000529069
8 *2893:RESET_B 0.000207854
9 *2927:X 2.29808e-05
10 *250:75 0.00175839
11 *250:66 0.00027359
12 *250:58 0.00150844
13 *250:41 0.000795143
14 *250:37 0.000302903
15 *250:31 0.00105891
16 *250:19 0.00128092
17 *250:6 0.000567792
18 *2877:RESET_B *300:10 7.52149e-05
19 *2892:RESET_B *2972:A 0
20 *2892:RESET_B *254:22 0.000425589
21 *2892:RESET_B *327:20 0.000112569
22 *2892:RESET_B *329:20 0.000447844
23 *2893:RESET_B *2893:D 0
24 *2901:RESET_B *2819:B_N 0.000533711
25 *250:19 *251:25 2.25909e-05
26 *250:19 *254:22 0.00114262
27 *250:19 *329:20 0.000341544
28 *250:31 *3016:A 0.000128662
29 *250:31 *306:50 0
30 *250:31 *324:10 0.000143932
31 *250:31 *328:22 0
32 *250:31 *330:28 0.000209775
33 *250:31 *333:22 0.000208802
34 *250:31 *334:8 0
35 *250:37 *2823:B_N 0.00018211
36 *250:37 *3016:A 0.000106894
37 *250:37 *300:10 0.000226704
38 *250:37 *333:22 0
39 *250:41 *300:10 1.54008e-05
40 *250:58 *300:10 0.000181608
41 *250:75 *330:28 0.000235142
42 *2764:A *250:31 0.000111839
43 *2802:C *250:31 0
44 *2803:B1 *250:31 0
45 *2804:B *250:31 0
46 *2812:B1 *250:31 0
47 *2812:B1 *250:37 0
48 *2815:A *250:58 8.02924e-05
49 *2818:B1 *250:75 0
50 *2819:A *2901:RESET_B 0
51 *2819:A *250:75 0
52 *2821:A *250:58 0.000208879
53 *2821:A *250:66 0.000306662
54 *2875:CLK *2875:RESET_B 0
55 *2876:CLK *250:41 0
56 *2876:CLK *250:58 0
57 *2901:D *2901:RESET_B 0
58 *2910:A *2901:RESET_B 0
59 *60:8 *250:66 0
60 *60:8 *250:75 0
61 *106:10 *250:19 0.000182872
62 *115:34 *2877:RESET_B 0
63 *115:34 *250:58 0
64 *126:10 *2901:RESET_B 0
65 *133:24 *2877:RESET_B 0.000237611
66 *133:106 *250:75 0.000181192
67 *134:8 *2877:RESET_B 0
68 *134:8 *250:31 0
69 *134:8 *250:37 0
70 *135:14 *2877:RESET_B 0
71 *136:8 *250:66 0.000242154
72 *150:6 *2901:RESET_B 0
73 *157:27 *2901:RESET_B 0
74 *158:10 *2875:RESET_B 0
75 *196:10 *2901:RESET_B 0
76 *196:10 *250:75 0
77 *241:42 *2877:RESET_B 0
78 *241:66 *250:75 0
79 *244:46 *2893:RESET_B 0
80 *249:113 *250:19 0
*RES
1 *2927:X *250:6 20.3502 
2 *250:6 *2893:RESET_B 21.9673 
3 *250:6 *250:19 25.2942 
4 *250:19 *250:31 48.2915 
5 *250:31 *250:37 23.605 
6 *250:37 *250:41 20.3193 
7 *250:41 *2877:RESET_B 45.1809 
8 *250:41 *250:58 22.678 
9 *250:58 *250:66 43.1415 
10 *250:66 *2878:RESET_B 20 
11 *250:58 *250:75 30.4854 
12 *250:75 *2875:RESET_B 40.3193 
13 *250:75 *2901:RESET_B 47.8795 
14 *250:37 *2876:RESET_B 20 
15 *250:31 *2903:RESET_B 40 
16 *250:19 *2892:RESET_B 42.8325 
*END

*D_NET *251 0.0125874
*CONN
*I *2902:RESET_B I *D sg13cmos5l_dfrbpq_1
*I *2879:RESET_B I *D sg13cmos5l_dfrbpq_1
*I *2882:RESET_B I *D sg13cmos5l_dfrbpq_1
*I *2904:RESET_B I *D sg13cmos5l_dfrbpq_1
*I *2880:RESET_B I *D sg13cmos5l_dfrbpq_1
*I *2881:RESET_B I *D sg13cmos5l_dfrbpq_1
*I *2927:A I *D sg13cmos5l_buf_1
*I *2928:X O *D sg13cmos5l_buf_1
*CAP
1 *2902:RESET_B 0.000410561
2 *2879:RESET_B 0
3 *2882:RESET_B 2.93901e-05
4 *2904:RESET_B 0.000408456
5 *2880:RESET_B 0
6 *2881:RESET_B 0.000200837
7 *2927:A 2.97747e-05
8 *2928:X 6.81307e-05
9 *251:59 0.00067252
10 *251:41 0.000200837
11 *251:39 0.000777161
12 *251:33 0.00123621
13 *251:27 0.00179545
14 *251:25 0.00166484
15 *251:8 0.00107158
16 *2882:RESET_B *2882:D 0
17 *2904:RESET_B *2904:D 0
18 *2904:RESET_B *265:18 0.000606714
19 *2904:RESET_B *276:28 0
20 *2904:RESET_B *335:10 0
21 *2927:A *2893:D 4.77702e-05
22 *251:8 *2893:D 0
23 *251:8 *254:22 0
24 *251:27 *2823:B_N 0.000872459
25 *251:27 *3016:A 0.000553662
26 *251:33 *327:20 0
27 *251:39 *265:18 0
28 *251:39 *333:22 0
29 *251:59 *265:18 0.000873185
30 *251:59 *276:28 0
31 *251:59 *289:10 0.000340375
32 *2803:B1 *2902:RESET_B 0
33 *2803:B1 *251:27 0
34 *2810:A1 *251:33 4.78356e-05
35 *2812:A2 *251:27 0
36 *2880:CLK *251:39 0
37 *2881:CLK *2881:RESET_B 0
38 *2895:CLK *251:8 0
39 *2903:CLK *2902:RESET_B 0
40 *2903:CLK *251:27 0
41 *2953:A *251:33 0
42 *2954:A *251:33 0
43 *58:10 *2882:RESET_B 4.77534e-05
44 *61:10 *2881:RESET_B 1.54008e-05
45 *61:10 *251:39 0
46 *115:26 *251:25 0.000571865
47 *133:24 *251:27 0
48 *133:70 *2904:RESET_B 0
49 *133:98 *251:33 0
50 *133:98 *251:39 0
51 *151:8 *251:33 0
52 *151:27 *2902:RESET_B 0
53 *159:52 *251:33 0
54 *232:6 *251:33 0
55 *232:6 *251:39 0
56 *233:6 *2904:RESET_B 0
57 *236:16 *2904:RESET_B 0
58 *249:84 *251:25 0
59 *249:113 *2927:A 0
60 *249:113 *251:25 2.19989e-05
61 *250:19 *251:25 2.25909e-05
*RES
1 *2928:X *251:8 40.5974 
2 *251:8 *2927:A 40.3193 
3 *251:8 *251:25 47.8692 
4 *251:25 *251:27 8.2606 
5 *251:27 *251:33 26.723 
6 *251:33 *251:39 25.1506 
7 *251:39 *251:41 20 
8 *251:41 *2881:RESET_B 22.1836 
9 *251:41 *2880:RESET_B 20 
10 *251:39 *251:59 4.3775 
11 *251:59 *2904:RESET_B 44.8719 
12 *251:59 *2882:RESET_B 40.3193 
13 *251:33 *2879:RESET_B 20 
14 *251:27 *2902:RESET_B 43.605 
*END

*D_NET *252 0.0133513
*CONN
*I *2887:RESET_B I *D sg13cmos5l_dfrbpq_1
*I *2895:RESET_B I *D sg13cmos5l_dfrbpq_1
*I *2890:RESET_B I *D sg13cmos5l_dfrbpq_1
*I *2891:RESET_B I *D sg13cmos5l_dfrbpq_1
*I *2894:RESET_B I *D sg13cmos5l_dfrbpq_1
*I *2888:RESET_B I *D sg13cmos5l_dfrbpq_1
*I *2905:RESET_B I *D sg13cmos5l_dfrbpq_1
*I *2889:RESET_B I *D sg13cmos5l_dfrbpq_1
*I *2929:X O *D sg13cmos5l_buf_1
*CAP
1 *2887:RESET_B 0
2 *2895:RESET_B 0.000757425
3 *2890:RESET_B 0
4 *2891:RESET_B 0
5 *2894:RESET_B 0
6 *2888:RESET_B 5.61002e-05
7 *2905:RESET_B 0.000102106
8 *2889:RESET_B 0
9 *2929:X 3.01523e-05
10 *252:102 0.000883314
11 *252:88 0.000271675
12 *252:80 0.000743591
13 *252:67 0.000462715
14 *252:57 0.00138368
15 *252:40 0.00120347
16 *252:27 0.00097103
17 *252:18 0.000833469
18 *252:6 0.000818905
19 *2895:RESET_B *265:12 0
20 *2905:RESET_B *309:8 0
21 *2905:RESET_B *309:12 0
22 *252:6 *265:12 0
23 *252:18 *256:10 0
24 *252:18 *260:12 0
25 *252:27 *309:12 0
26 *252:40 *253:19 0
27 *252:40 *309:8 0
28 *252:57 *321:44 0.000408794
29 *252:67 *327:20 0.000208063
30 *252:67 *328:22 0
31 *252:80 *313:8 0
32 *252:80 *328:38 0
33 *252:80 *330:10 7.65602e-05
34 *252:88 *329:20 0.000273562
35 *252:102 *265:12 0
36 *2756:A_N *252:67 8.02379e-05
37 *2763:A2 *2888:RESET_B 8.00842e-05
38 *2773:B *252:80 0.000144582
39 *2773:B *252:88 0
40 *2775:A *252:18 8.0216e-05
41 *2785:A *252:67 0.000144963
42 *2785:B *252:67 0
43 *2905:D *2905:RESET_B 0
44 *2905:D *252:18 8.0216e-05
45 *2905:D *252:27 0.000273299
46 *51:10 *252:18 0
47 *89:42 *252:80 0
48 *92:10 *252:67 0.000287672
49 *101:22 *252:57 0
50 *116:65 *252:80 0
51 *117:10 *252:40 0
52 *143:24 *2895:RESET_B 0
53 *143:43 *252:18 0.000340795
54 *160:18 *252:67 0
55 *160:22 *252:18 0
56 *197:22 *252:80 0
57 *197:22 *252:88 0
58 *198:10 *252:40 0
59 *202:20 *2895:RESET_B 0
60 *202:20 *252:6 0
61 *202:20 *252:102 0.000176489
62 *214:20 *252:67 0
63 *221:8 *2905:RESET_B 0.000181508
64 *221:8 *252:40 0.000212215
65 *221:12 *252:27 0
66 *225:12 *252:40 0
67 *234:18 *252:88 0.000235018
68 *246:8 *252:67 0.000341119
69 *246:8 *252:80 0.000213153
70 *246:53 *252:80 0.000930673
71 *247:41 *252:67 6.44205e-05
72 *247:52 *252:88 0
73 *249:10 *252:40 0
74 *249:21 *252:40 0
*RES
1 *2929:X *252:6 20.3193 
2 *252:6 *252:18 46.4993 
3 *252:18 *2889:RESET_B 20 
4 *252:18 *252:27 21.8334 
5 *252:27 *2905:RESET_B 41.3802 
6 *252:27 *252:40 6.5302 
7 *252:40 *2888:RESET_B 40.5356 
8 *252:40 *252:57 45.2118 
9 *252:57 *252:67 45.6238 
10 *252:67 *2894:RESET_B 40 
11 *252:57 *252:80 26.2624 
12 *252:80 *252:88 42.9252 
13 *252:88 *2891:RESET_B 20 
14 *252:80 *2890:RESET_B 20 
15 *252:6 *252:102 1.5347 
16 *252:102 *2895:RESET_B 27.4572 
17 *252:102 *2887:RESET_B 20 
*END

*D_NET *253 0.0115044
*CONN
*I *2896:RESET_B I *D sg13cmos5l_dfrbpq_1
*I *2898:RESET_B I *D sg13cmos5l_dfrbpq_1
*I *2897:RESET_B I *D sg13cmos5l_dfrbpq_1
*I *2929:A I *D sg13cmos5l_buf_1
*I *2930:X O *D sg13cmos5l_buf_1
*CAP
1 *2896:RESET_B 0
2 *2898:RESET_B 0
3 *2897:RESET_B 3.46921e-05
4 *2929:A 9.93765e-05
5 *2930:X 0.000258904
6 *253:48 0.000608027
7 *253:33 0.00101157
8 *253:23 0.00051108
9 *253:19 0.00213789
10 *253:8 0.00235394
11 *253:8 *254:12 0
12 *253:19 *260:12 0
13 *253:19 *260:14 0
14 *253:23 *2790:A 0
15 *253:33 *2790:A 0
16 *253:33 *260:14 0
17 *253:48 *256:10 0.000714419
18 *253:48 *321:14 0.000307002
19 *253:48 *322:35 0.000287672
20 *2888:CLK *253:19 0
21 *2897:CLK *253:48 0
22 *2898:D *253:48 0
23 *2974:A *253:48 0
24 *143:10 *253:19 7.51285e-05
25 *143:24 *2929:A 0.000175966
26 *143:24 *253:8 4.72458e-05
27 *143:41 *253:19 0.000694957
28 *143:43 *253:33 0.000557251
29 *161:12 *253:33 0
30 *161:38 *253:23 0.000209052
31 *161:38 *253:33 8.02927e-05
32 *161:70 *253:48 0
33 *197:8 *253:19 0.000181642
34 *202:20 *2929:A 0.000176537
35 *202:20 *253:8 0.000323937
36 *212:10 *253:48 0.000208878
37 *221:8 *253:19 0.000448915
38 *225:12 *253:19 0
39 *252:40 *253:19 0
*RES
1 *2930:X *253:8 23.1106 
2 *253:8 *2929:A 21.1845 
3 *253:8 *253:19 38.8902 
4 *253:19 *253:23 21.4008 
5 *253:23 *253:33 44.2951 
6 *253:33 *2897:RESET_B 20.3193 
7 *253:33 *253:48 47.2477 
8 *253:48 *2898:RESET_B 20 
9 *253:23 *2896:RESET_B 20 
*END

*D_NET *254 0.0147727
*CONN
*I *2930:A I *D sg13cmos5l_buf_1
*I *2928:A I *D sg13cmos5l_buf_1
*I *2899:RESET_B I *D sg13cmos5l_dfrbpq_1
*I *2900:RESET_B I *D sg13cmos5l_dfrbpq_1
*I *2931:X O *D sg13cmos5l_buf_1
*CAP
1 *2930:A 8.54159e-05
2 *2928:A 0
3 *2899:RESET_B 0.000241251
4 *2900:RESET_B 0.000327815
5 *2931:X 2.88561e-05
6 *254:22 0.00199703
7 *254:12 0.00276784
8 *254:6 0.00145415
9 *2899:RESET_B *2772:B 0
10 *2900:RESET_B *2794:A2 0
11 *2930:A *309:12 0
12 *254:12 *2893:D 0
13 *254:12 *308:10 4.75229e-05
14 *254:12 *309:12 0
15 *254:22 *2893:D 0
16 *254:22 *323:25 0
17 *254:22 *329:20 0.000501218
18 *2751:A *254:12 0
19 *2777:A *254:12 0.000268471
20 *2794:A1 *2899:RESET_B 0
21 *2892:RESET_B *254:22 0.000425589
22 *2895:CLK *254:12 8.02269e-05
23 *2895:CLK *254:22 0
24 *2899:CLK *2899:RESET_B 0
25 *2905:CLK *254:12 0
26 *2931:A *2930:A 0
27 *2959:A *2900:RESET_B 0
28 *2961:A *2900:RESET_B 0
29 *51:10 *254:12 0.000339385
30 *94:12 *254:12 0.000403346
31 *113:31 *254:12 0
32 *143:24 *254:12 0
33 *143:24 *254:22 0
34 *160:24 *254:12 0
35 *160:28 *254:12 0
36 *201:8 *254:22 0
37 *202:20 *2930:A 0
38 *203:10 *2900:RESET_B 0.00017724
39 *213:16 *254:12 0
40 *220:34 *254:12 4.78521e-05
41 *228:22 *254:22 0.0028167
42 *228:24 *2899:RESET_B 0.000532481
43 *228:24 *254:22 0.00108772
44 *248:10 *254:12 0
45 *249:113 *254:12 0
46 *250:19 *254:22 0.00114262
47 *251:8 *254:22 0
48 *253:8 *254:12 0
*RES
1 *2931:X *254:6 20.3502 
2 *254:6 *254:12 13.7505 
3 *254:12 *254:22 41.0532 
4 *254:22 *2900:RESET_B 43.3475 
5 *254:22 *2899:RESET_B 43.3269 
6 *254:12 *2928:A 20 
7 *254:6 *2930:A 21.1021 
*END

*D_NET *255 0.0106013
*CONN
*I *2862:RESET_B I *D sg13cmos5l_dfrbpq_1
*I *2854:RESET_B I *D sg13cmos5l_dfrbpq_1
*I *2856:RESET_B I *D sg13cmos5l_dfrbpq_1
*I *2868:RESET_B I *D sg13cmos5l_dfrbpq_1
*I *2869:RESET_B I *D sg13cmos5l_dfrbpq_1
*I *2870:RESET_B I *D sg13cmos5l_dfrbpq_1
*I *2872:RESET_B I *D sg13cmos5l_dfrbpq_1
*I *2866:RESET_B I *D sg13cmos5l_dfrbpq_1
*I *2932:X O *D sg13cmos5l_buf_1
*CAP
1 *2862:RESET_B 0.000739528
2 *2854:RESET_B 0
3 *2856:RESET_B 0
4 *2868:RESET_B 3.88303e-05
5 *2869:RESET_B 0
6 *2870:RESET_B 0.000186272
7 *2872:RESET_B 0.000359932
8 *2866:RESET_B 0
9 *2932:X 0.000223857
10 *255:54 0.000532686
11 *255:52 0.000515139
12 *255:37 0.000792037
13 *255:26 0.00111116
14 *255:16 0.0011801
15 *255:14 0.000415044
16 *255:10 0.00100727
17 *2862:RESET_B *2864:RESET_B 0
18 *2862:RESET_B *256:34 0
19 *2862:RESET_B *260:28 0
20 *2862:RESET_B *262:8 0
21 *2862:RESET_B *274:25 0
22 *2868:RESET_B *260:36 0
23 *2872:RESET_B *256:44 0.000209582
24 *2872:RESET_B *276:47 0
25 *2872:RESET_B *303:10 7.62277e-05
26 *255:10 *256:26 0
27 *255:10 *256:34 0
28 *255:10 *258:30 0
29 *255:10 *260:22 0.000137601
30 *255:10 *261:27 0
31 *255:14 *260:22 0
32 *255:16 *274:12 0
33 *255:16 *274:25 0
34 *255:26 *276:47 0.000435462
35 *255:37 *2847:A1 4.77425e-05
36 *255:52 *303:10 0.000429114
37 *255:54 *260:36 0
38 *2840:A1 *2862:RESET_B 0.000605992
39 *2844:A1 *255:26 0
40 *2847:A0 *255:26 0
41 *2847:A0 *255:37 0
42 *2849:S *2870:RESET_B 0
43 *2862:CLK *2862:RESET_B 0
44 *2863:CLK *255:16 0
45 *2868:D *2868:RESET_B 0
46 *2869:D *2870:RESET_B 0
47 *2869:D *255:54 0
48 *2872:D *2872:RESET_B 0
49 *2872:CLK *255:54 0
50 *2908:dac_out[6] *2872:RESET_B 0
51 *2908:dac_out[6] *255:26 0
52 *2908:dac_out[6] *255:52 0
53 *141:30 *2862:RESET_B 5.30319e-05
54 *141:30 *255:10 0.000449343
55 *141:30 *255:14 4.77425e-05
56 *162:40 *255:26 0.000394828
57 *162:66 *2862:RESET_B 0
58 *163:33 *2872:RESET_B 0
59 *170:10 *2870:RESET_B 0
60 *170:10 *255:54 0
61 *176:8 *255:16 0
62 *179:23 *255:26 0
63 *242:29 *255:16 0.000128688
64 *242:29 *255:26 0.000371608
65 *242:31 *255:26 0.000112506
66 *242:90 *255:26 0
67 *243:77 *2872:RESET_B 0
68 *243:77 *255:26 0
69 *243:77 *255:37 0
70 *243:77 *255:52 0
71 *243:93 *255:37 0
*RES
1 *2932:X *255:10 43.0488 
2 *255:10 *255:14 20.5356 
3 *255:14 *255:16 3.9964 
4 *255:16 *255:26 48.4048 
5 *255:26 *2866:RESET_B 20 
6 *255:26 *255:37 22.0024 
7 *255:37 *2872:RESET_B 43.9758 
8 *255:37 *255:52 22.0806 
9 *255:52 *255:54 3.5638 
10 *255:54 *2870:RESET_B 21.8334 
11 *255:54 *2869:RESET_B 20 
12 *255:52 *2868:RESET_B 20.4476 
13 *255:16 *2856:RESET_B 20 
14 *255:14 *2854:RESET_B 20 
15 *255:10 *2862:RESET_B 47.313 
*END

*D_NET *256 0.0408972
*CONN
*I *2827:A1 I *D sg13cmos5l_mux2_1
*I *2832:A0 I *D sg13cmos5l_mux2_1
*I *2848:A0 I *D sg13cmos5l_mux2_1
*I *3036:X O *D sg13cmos5l_buf_1
*CAP
1 *2827:A1 0
2 *2832:A0 2.96579e-05
3 *2848:A0 0
4 *3036:X 0
5 *256:64 0.00245033
6 *256:44 0.00158264
7 *256:34 0.00201697
8 *256:26 0.00280722
9 *256:12 0.00962531
10 *256:10 0.00714071
11 *256:6 0.00230896
12 *2832:A0 *261:27 1.54446e-05
13 *256:10 *2787:A 0
14 *256:10 *260:12 0
15 *256:10 *307:10 0.000394283
16 *256:10 *307:39 0
17 *256:10 *308:10 0.000660226
18 *256:10 *321:25 0
19 *256:10 *321:27 0
20 *256:10 *322:35 0
21 *256:10 *328:38 0.00247217
22 *256:26 *258:14 0
23 *256:26 *258:18 0
24 *256:26 *258:22 0.000510769
25 *256:26 *258:30 0
26 *256:26 *260:22 0
27 *256:26 *261:27 4.79124e-05
28 *256:34 *261:27 0
29 *256:44 *2866:D 0.000242181
30 *256:44 *274:12 0.000112684
31 *256:44 *274:25 0.000242209
32 *256:44 *276:47 0
33 *256:44 *305:8 0
34 *256:64 *259:10 0.00032392
35 *256:64 *259:12 0.000583279
36 *256:64 *259:18 0.000964823
37 *2783:A1 *256:10 0.0015123
38 *2847:A0 *256:44 0
39 *2848:S *256:44 0
40 *2851:D *256:26 0
41 *2852:D *256:26 0.000242313
42 *2853:D *256:26 0
43 *2854:D *256:26 0
44 *2862:RESET_B *256:34 0
45 *2872:RESET_B *256:44 0.000209582
46 *2872:D *256:44 0
47 *2884:D *256:64 0
48 *2885:D *256:64 0
49 *2908:adc_ref[1] *256:10 0
50 *2908:adc_ref[1] *256:12 0
51 *2908:adc_ref[1] *256:64 0
52 *2990:A *256:44 0
53 *51:10 *256:10 0.000819238
54 *77:10 *256:34 0
55 *113:31 *256:10 0
56 *116:109 *256:10 0.000181192
57 *141:20 *256:26 0
58 *141:30 *2832:A0 0
59 *141:30 *256:34 0
60 *143:43 *256:10 0
61 *143:43 *256:12 0
62 *143:43 *256:64 0
63 *162:40 *256:44 0.000436358
64 *164:72 *256:44 0
65 *176:8 *256:44 0
66 *229:20 *256:64 0
67 *243:83 *256:44 0
68 *243:93 *256:44 0
69 *244:18 *256:10 0
70 *245:26 *256:26 0
71 *245:56 *256:64 0.00225014
72 *246:8 *256:10 0
73 *252:18 *256:10 0
74 *253:48 *256:10 0.000714419
75 *255:10 *256:26 0
76 *255:10 *256:34 0
*RES
1 *3036:X *256:6 40 
2 *256:6 *256:10 31.5695 
3 *256:10 *256:12 46.0822 
4 *256:12 *256:26 44.5655 
5 *256:26 *256:34 43.8522 
6 *256:34 *256:44 35.9012 
7 *256:44 *2848:A0 40 
8 *256:26 *2832:A0 20.5356 
9 *256:12 *256:64 46.6873 
10 *256:64 *2827:A1 20 
*END

*D_NET *257 0.0083486
*CONN
*I *2863:RESET_B I *D sg13cmos5l_dfrbpq_1
*I *2858:RESET_B I *D sg13cmos5l_dfrbpq_1
*I *2865:RESET_B I *D sg13cmos5l_dfrbpq_1
*I *2874:RESET_B I *D sg13cmos5l_dfrbpq_1
*I *2871:RESET_B I *D sg13cmos5l_dfrbpq_1
*I *2857:RESET_B I *D sg13cmos5l_dfrbpq_1
*I *2873:RESET_B I *D sg13cmos5l_dfrbpq_1
*I *2855:RESET_B I *D sg13cmos5l_dfrbpq_1
*I *2933:X O *D sg13cmos5l_buf_1
*CAP
1 *2863:RESET_B 0.000137655
2 *2858:RESET_B 0
3 *2865:RESET_B 0
4 *2874:RESET_B 0
5 *2871:RESET_B 0
6 *2857:RESET_B 0
7 *2873:RESET_B 0
8 *2855:RESET_B 2.77263e-05
9 *2933:X 0.000151228
10 *257:59 0.000443459
11 *257:51 0.000847227
12 *257:49 0.000566481
13 *257:47 0.000418171
14 *257:45 0.000798582
15 *257:31 0.000544904
16 *257:23 0.00114033
17 *257:17 0.00137129
18 *257:6 0.000549352
19 *257:6 *2834:A1 0
20 *257:6 *2842:A0 0
21 *257:17 *2834:A0 4.77866e-05
22 *257:17 *2834:A1 0
23 *257:17 *2842:A0 0
24 *257:17 *2850:A0 0.000177032
25 *257:23 *265:22 0
26 *257:23 *276:28 0
27 *257:31 *2836:A0 0
28 *257:31 *2836:A1 0
29 *257:31 *2850:A0 0
30 *257:31 *298:20 0
31 *257:45 *276:28 0
32 *257:47 *2837:A0 0
33 *257:49 *2808:A0 0
34 *257:51 *2865:D 4.78556e-05
35 *2834:S *257:17 0
36 *2835:S *2863:RESET_B 0
37 *2836:S *257:23 0
38 *2836:S *257:31 0
39 *2836:S *257:45 0
40 *2842:S *257:45 0
41 *2858:D *257:47 0
42 *2871:CLK *257:51 0
43 *2871:CLK *257:59 0
44 *2873:D *257:31 0
45 *2874:CLK *257:47 0
46 *2874:CLK *257:49 0
47 *2874:CLK *257:51 0
48 *2994:A *257:17 0
49 *81:10 *257:51 0
50 *141:32 *2863:RESET_B 0
51 *141:45 *257:45 0
52 *162:10 *257:45 0.000128662
53 *164:22 *257:31 4.23522e-06
54 *164:34 *257:31 0.000140744
55 *171:8 *257:51 0
56 *171:16 *257:59 0
57 *171:28 *257:59 0
58 *176:16 *257:45 0.000661386
59 *194:10 *257:59 0
60 *242:12 *2863:RESET_B 0.000144485
*RES
1 *2933:X *257:6 21.4008 
2 *257:6 *2855:RESET_B 20.3502 
3 *257:6 *257:17 23.5638 
4 *257:17 *257:23 25.768 
5 *257:23 *257:31 44.8802 
6 *257:31 *2873:RESET_B 20 
7 *257:23 *2857:RESET_B 20 
8 *257:17 *257:45 25.047 
9 *257:45 *257:47 1.317 
10 *257:47 *257:49 1.6574 
11 *257:49 *257:51 2.8876 
12 *257:51 *257:59 44.0994 
13 *257:59 *2871:RESET_B 20 
14 *257:51 *2874:RESET_B 20 
15 *257:49 *2865:RESET_B 20 
16 *257:47 *2858:RESET_B 20 
17 *257:45 *2863:RESET_B 21.4008 
*END

*D_NET *258 0.0107007
*CONN
*I *2851:RESET_B I *D sg13cmos5l_dfrbpq_1
*I *2859:RESET_B I *D sg13cmos5l_dfrbpq_1
*I *2860:RESET_B I *D sg13cmos5l_dfrbpq_1
*I *2864:RESET_B I *D sg13cmos5l_dfrbpq_1
*I *2852:RESET_B I *D sg13cmos5l_dfrbpq_1
*I *2853:RESET_B I *D sg13cmos5l_dfrbpq_1
*I *2932:A I *D sg13cmos5l_buf_1
*I *2933:A I *D sg13cmos5l_buf_1
*I *2934:X O *D sg13cmos5l_buf_1
*CAP
1 *2851:RESET_B 2.45224e-05
2 *2859:RESET_B 0.000192513
3 *2860:RESET_B 4.72978e-05
4 *2864:RESET_B 0.00102198
5 *2852:RESET_B 0
6 *2853:RESET_B 0
7 *2932:A 0
8 *2933:A 0.000560137
9 *2934:X 0.000262104
10 *258:64 0.00132272
11 *258:62 0.00100399
12 *258:30 0.000954769
13 *258:22 0.0007766
14 *258:18 0.000463515
15 *258:14 0.000989236
16 *258:12 0.000374175
17 *258:10 0.000262104
18 *2859:RESET_B *2859:D 0
19 *2864:RESET_B *2860:D 0
20 *2864:RESET_B *2861:RESET_B 0
21 *2864:RESET_B *2862:D 0
22 *2864:RESET_B *260:36 0
23 *2933:A *2834:A1 0
24 *2933:A *272:10 0
25 *258:10 *270:8 0
26 *258:30 *261:27 7.52158e-05
27 *258:64 *2861:RESET_B 0
28 *258:64 *266:12 0
29 *2830:A0 *258:10 0
30 *2831:A0 *258:18 0
31 *2838:S *258:64 0
32 *2841:A1 *2864:RESET_B 0.000242291
33 *2851:D *2851:RESET_B 4.77425e-05
34 *2851:D *258:14 0.000209505
35 *2862:RESET_B *2864:RESET_B 0
36 *2908:adc_ref[6] *258:10 0.000393822
37 *2988:A *2864:RESET_B 0
38 *2988:A *258:64 0
39 *2992:A *2859:RESET_B 0
40 *2992:A *258:64 0
41 *78:10 *2864:RESET_B 0
42 *141:20 *258:22 0
43 *141:20 *258:30 0
44 *141:30 *2933:A 0
45 *141:30 *258:30 0
46 *149:19 *258:62 0
47 *159:78 *258:10 0.00039332
48 *164:55 *2933:A 0
49 *166:26 *258:62 0.000395171
50 *243:49 *2864:RESET_B 0
51 *243:60 *2864:RESET_B 0
52 *243:77 *2864:RESET_B 0.000177186
53 *245:26 *258:14 0
54 *245:26 *258:18 0
55 *245:26 *258:22 0
56 *245:41 *258:22 0
57 *255:10 *258:30 0
58 *256:26 *258:14 0
59 *256:26 *258:18 0
60 *256:26 *258:22 0.000510769
61 *256:26 *258:30 0
*RES
1 *2934:X *258:10 43.4505 
2 *258:10 *258:12 20 
3 *258:12 *258:14 3.3475 
4 *258:14 *258:18 0.8858 
5 *258:18 *258:22 4.3466 
6 *258:22 *258:30 24.2333 
7 *258:30 *2933:A 46.5302 
8 *258:30 *2932:A 40 
9 *258:22 *2853:RESET_B 20 
10 *258:18 *2852:RESET_B 20 
11 *258:14 *258:62 46.283 
12 *258:62 *258:64 2.6986 
13 *258:64 *2864:RESET_B 28.088 
14 *258:64 *2860:RESET_B 20.5974 
15 *258:62 *2859:RESET_B 21.9982 
16 *258:12 *2851:RESET_B 20.3193 
*END

*D_NET *259 0.014544
*CONN
*I *2886:RESET_B I *D sg13cmos5l_dfrbpq_1
*I *2885:RESET_B I *D sg13cmos5l_dfrbpq_1
*I *2884:RESET_B I *D sg13cmos5l_dfrbpq_1
*I *2883:RESET_B I *D sg13cmos5l_dfrbpq_1
*I *2934:A I *D sg13cmos5l_buf_1
*I *2861:RESET_B I *D sg13cmos5l_dfrbpq_1
*I *2867:RESET_B I *D sg13cmos5l_dfrbpq_1
*I *2935:X O *D sg13cmos5l_buf_1
*CAP
1 *2886:RESET_B 0.000384467
2 *2885:RESET_B 0
3 *2884:RESET_B 0
4 *2883:RESET_B 0
5 *2934:A 0
6 *2861:RESET_B 0.00104043
7 *2867:RESET_B 6.68694e-05
8 *2935:X 0.000185818
9 *259:44 0.00029956
10 *259:20 0.00130265
11 *259:18 0.00267342
12 *259:12 0.00251424
13 *259:10 0.000688143
14 *259:8 0.000922695
15 *2886:RESET_B *2828:A1 4.78524e-05
16 *2846:A0 *259:44 0
17 *2860:CLK *2861:RESET_B 0
18 *2864:RESET_B *2861:RESET_B 0
19 *2867:D *2867:RESET_B 0
20 *2867:D *259:20 0
21 *2885:D *259:10 0
22 *2886:D *2886:RESET_B 1.54556e-05
23 *2886:CLK *2886:RESET_B 0
24 *2886:CLK *259:8 0
25 *2908:adc_ref[6] *259:44 0
26 *2987:A *2861:RESET_B 0
27 *2988:A *2861:RESET_B 0.000339475
28 *2991:A *259:18 0
29 *2992:A *2861:RESET_B 0.000339114
30 *2992:A *2867:RESET_B 0
31 *132:23 *259:44 0.000712747
32 *148:21 *259:44 0.00113908
33 *165:21 *259:18 0
34 *165:21 *259:20 0
35 *165:29 *2861:RESET_B 0
36 *165:45 *259:12 0
37 *165:45 *259:18 0
38 *165:52 *259:10 0
39 *165:52 *259:12 0
40 *165:59 *259:8 0
41 *165:59 *259:10 0
42 *193:8 *259:44 0
43 *229:16 *2886:RESET_B 0
44 *229:16 *259:10 0
45 *245:56 *259:18 0
46 *256:64 *259:10 0.00032392
47 *256:64 *259:12 0.000583279
48 *256:64 *259:18 0.000964823
49 *258:64 *2861:RESET_B 0
*RES
1 *2935:X *259:8 22.9561 
2 *259:8 *259:10 2.7028 
3 *259:10 *259:12 3.9964 
4 *259:12 *259:18 18.6155 
5 *259:18 *259:20 2.0497 
6 *259:20 *2867:RESET_B 20.8446 
7 *259:20 *2861:RESET_B 31.4948 
8 *259:18 *259:44 45.2942 
9 *259:44 *2934:A 20 
10 *259:12 *2883:RESET_B 20 
11 *259:10 *2884:RESET_B 20 
12 *259:8 *2885:RESET_B 20 
13 *259:8 *2886:RESET_B 23.9964 
*END

*D_NET *260 0.0364262
*CONN
*I *2828:A1 I *D sg13cmos5l_mux2_1
*I *2833:A0 I *D sg13cmos5l_mux2_1
*I *2849:A0 I *D sg13cmos5l_mux2_1
*I *3037:X O *D sg13cmos5l_buf_1
*CAP
1 *2828:A1 0.000840699
2 *2833:A0 0
3 *2849:A0 0
4 *3037:X 0.000646015
5 *260:58 0.00288515
6 *260:36 0.00183236
7 *260:28 0.00266645
8 *260:22 0.0033384
9 *260:14 0.01074
10 *260:12 0.00683726
11 *260:12 *265:12 4.76327e-05
12 *260:12 *276:16 4.78982e-05
13 *260:14 *320:23 0
14 *260:14 *327:36 0
15 *260:28 *274:12 0
16 *260:28 *274:25 0.00103469
17 *260:36 *303:10 0
18 *260:58 *2825:A0 0
19 *2825:A1 *260:58 0
20 *2840:A1 *260:28 0
21 *2841:A1 *260:28 0
22 *2849:S *260:36 0
23 *2852:D *260:22 0
24 *2853:D *260:22 0
25 *2862:RESET_B *260:28 0
26 *2862:CLK *260:36 0
27 *2864:RESET_B *260:36 0
28 *2866:CLK *260:36 0
29 *2868:RESET_B *260:36 0
30 *2868:D *260:36 0
31 *2869:CLK *260:36 0
32 *2870:D *260:36 0
33 *2870:CLK *260:36 0
34 *2883:D *260:58 0
35 *2886:RESET_B *2828:A1 4.78524e-05
36 *2886:D *2828:A1 0
37 *2920:A *260:22 0
38 *2993:A *260:22 0
39 *78:10 *260:36 0
40 *141:30 *260:28 0
41 *141:32 *260:28 0
42 *143:10 *260:12 0
43 *143:43 *260:14 0
44 *144:8 *260:14 0
45 *144:19 *260:14 0
46 *144:19 *260:58 0
47 *145:23 *260:14 0
48 *160:18 *260:14 0
49 *161:8 *260:14 0
50 *161:12 *260:14 0
51 *161:23 *260:14 0
52 *163:55 *260:36 0
53 *164:55 *260:28 7.52149e-05
54 *164:70 *260:28 0.000874759
55 *170:10 *260:36 0.000501451
56 *197:33 *260:14 0.000980848
57 *218:8 *260:14 0
58 *220:34 *260:12 0
59 *220:34 *260:14 0
60 *226:8 *260:14 0
61 *229:16 *2828:A1 0.000567358
62 *229:20 *2828:A1 0.000517374
63 *229:20 *260:58 0
64 *229:32 *260:58 0.000203717
65 *242:12 *260:22 0
66 *243:77 *260:36 0
67 *245:56 *260:58 0.00160341
68 *252:18 *260:12 0
69 *253:19 *260:12 0
70 *253:19 *260:14 0
71 *253:33 *260:14 0
72 *255:10 *260:22 0.000137601
73 *255:14 *260:22 0
74 *255:54 *260:36 0
75 *256:10 *260:12 0
76 *256:26 *260:22 0
*RES
1 *3037:X *260:12 45.9328 
2 *260:12 *260:14 71.0494 
3 *260:14 *260:22 46.2959 
4 *260:22 *260:28 30.5575 
5 *260:28 *260:36 37.9309 
6 *260:36 *2849:A0 20 
7 *260:22 *2833:A0 20 
8 *260:14 *260:58 43.5355 
9 *260:58 *2828:A1 29.5481 
*END

*D_NET *261 0.00268887
*CONN
*I *2832:A1 I *D sg13cmos5l_mux2_1
*I *2840:A0 I *D sg13cmos5l_mux2_1
*I *2983:X O *D sg13cmos5l_dlygate4sd3_1
*CAP
1 *2832:A1 0
2 *2840:A0 3.7009e-05
3 *2983:X 0.00041309
4 *261:27 0.00041999
5 *261:12 0.000610362
6 *261:8 0.000566453
7 *261:8 *262:8 0
8 *261:27 *262:8 0
9 *2832:A0 *261:27 1.54446e-05
10 *2847:A0 *261:12 0
11 *77:10 *261:27 0.000503394
12 *173:24 *261:8 0
13 *184:8 *261:8 0
14 *243:49 *261:12 0
15 *255:10 *261:27 0
16 *256:26 *261:27 4.79124e-05
17 *256:34 *261:27 0
18 *258:30 *261:27 7.52158e-05
*RES
1 *2983:X *261:8 43.811 
2 *261:8 *261:12 21.4008 
3 *261:12 *2840:A0 20.3193 
4 *261:12 *261:27 45.3663 
5 *261:27 *2832:A1 20 
*END

*D_NET *262 0.000755662
*CONN
*I *2861:D I *D sg13cmos5l_dfrbpq_1
*I *2984:X O *D sg13cmos5l_dlygate4sd3_1
*CAP
1 *2861:D 0
2 *2984:X 0.000313642
3 *262:8 0.000313642
4 *2840:A1 *262:8 0
5 *2862:RESET_B *262:8 0
6 *77:10 *262:8 0.000128379
7 *261:8 *262:8 0
8 *261:27 *262:8 0
*RES
1 *2984:X *262:8 43.0694 
2 *262:8 *2861:D 40 
*END

*D_NET *263 0.000977665
*CONN
*I *2844:A0 I *D sg13cmos5l_mux2_1
*I *2836:A1 I *D sg13cmos5l_mux2_1
*I *2985:X O *D sg13cmos5l_dlygate4sd3_1
*CAP
1 *2844:A0 0.000286517
2 *2836:A1 0.000202315
3 *2985:X 0
4 *263:6 0.000488832
5 *2836:A1 *2836:A0 0
6 *164:34 *2844:A0 0
7 *242:72 *2836:A1 0
8 *242:72 *2844:A0 0
9 *257:31 *2836:A1 0
*RES
1 *2985:X *263:6 40 
2 *263:6 *2836:A1 42.3278 
3 *263:6 *2844:A0 43.3166 
*END

*D_NET *264 0.000525501
*CONN
*I *2865:D I *D sg13cmos5l_dfrbpq_1
*I *2986:X O *D sg13cmos5l_dlygate4sd3_1
*CAP
1 *2865:D 0.000238823
2 *2986:X 0.000238823
3 *2865:D *2808:A0 0
4 *81:10 *2865:D 0
5 *171:8 *2865:D 0
6 *257:51 *2865:D 4.78556e-05
*RES
1 *2986:X *2865:D 42.0103 
*END

*D_NET *265 0.024827
*CONN
*I *2834:A0 I *D sg13cmos5l_mux2_1
*I *2850:A0 I *D sg13cmos5l_mux2_1
*I *3038:X O *D sg13cmos5l_buf_1
*CAP
1 *2834:A0 2.30066e-05
2 *2850:A0 0.00123441
3 *3038:X 0.00276114
4 *265:22 0.00335001
5 *265:18 0.00540747
6 *265:14 0.00331489
7 *265:12 0.00276114
8 *2834:A0 *2834:A1 1.54449e-05
9 *265:12 *2814:A1 0
10 *265:12 *276:16 0.00273664
11 *265:12 *276:24 0.000339306
12 *265:18 *276:28 0
13 *265:18 *278:10 0
14 *265:18 *279:8 0
15 *265:18 *335:10 0
16 *265:22 *276:28 0
17 *2743:A *265:12 0
18 *2808:A1 *2850:A0 0
19 *2808:S *2850:A0 0
20 *2814:A2 *265:12 5.78169e-05
21 *2814:B1 *265:12 0.000242138
22 *2836:S *265:22 0.000128576
23 *2850:S *2850:A0 0
24 *2871:D *2850:A0 0
25 *2895:RESET_B *265:12 0
26 *2904:RESET_B *265:18 0.000606714
27 *2985:A *2850:A0 0.000208382
28 *2994:A *2850:A0 0
29 *2998:A *265:12 0
30 *59:10 *265:18 0
31 *61:10 *265:18 0
32 *62:8 *265:18 0.000446767
33 *143:10 *265:12 0
34 *143:24 *265:12 0
35 *163:10 *2850:A0 0
36 *164:22 *2850:A0 0
37 *164:22 *265:22 0
38 *164:34 *2850:A0 0
39 *202:20 *265:12 0
40 *234:8 *265:12 4.75212e-05
41 *235:18 *265:12 0
42 *236:22 *265:18 0
43 *238:10 *265:18 0
44 *238:14 *265:18 0
45 *240:8 *265:18 0
46 *242:66 *2850:A0 0
47 *251:39 *265:18 0
48 *251:59 *265:18 0.000873185
49 *252:6 *265:12 0
50 *252:102 *265:12 0
51 *257:17 *2834:A0 4.77866e-05
52 *257:17 *2850:A0 0.000177032
53 *257:23 *265:22 0
54 *257:31 *2850:A0 0
55 *260:12 *265:12 4.76327e-05
*RES
1 *3038:X *265:12 49.4889 
2 *265:12 *265:14 20 
3 *265:14 *265:18 42.3845 
4 *265:18 *265:22 46.5534 
5 *265:22 *2850:A0 32.7617 
6 *265:22 *2834:A0 20.3193 
*END

*D_NET *266 0.00275924
*CONN
*I *2839:A0 I *D sg13cmos5l_mux2_1
*I *2831:A1 I *D sg13cmos5l_mux2_1
*I *2987:X O *D sg13cmos5l_dlygate4sd3_1
*CAP
1 *2839:A0 0
2 *2831:A1 0
3 *2987:X 0.000409363
4 *266:18 0.000282979
5 *266:12 0.000467535
6 *266:8 0.000593919
7 *2838:S *266:12 0
8 *76:8 *266:8 0
9 *166:26 *266:8 0
10 *183:8 *266:8 0
11 *243:21 *266:18 0.000821986
12 *243:49 *266:8 0
13 *243:49 *266:18 0.000183454
14 *258:64 *266:12 0
*RES
1 *2987:X *266:8 43.811 
2 *266:8 *266:12 21.6171 
3 *266:12 *266:18 44.5526 
4 *266:18 *2831:A1 20 
5 *266:12 *2839:A0 20 
*END

*D_NET *267 0.000302971
*CONN
*I *2860:D I *D sg13cmos5l_dfrbpq_1
*I *2988:X O *D sg13cmos5l_dlygate4sd3_1
*CAP
1 *2860:D 0.000151485
2 *2988:X 0.000151485
3 *2864:RESET_B *2860:D 0
4 *243:49 *2860:D 0
*RES
1 *2988:X *2860:D 41.1845 
*END

*D_NET *268 0.00508915
*CONN
*I *2837:A1 I *D sg13cmos5l_mux2_1
*I *2845:A0 I *D sg13cmos5l_mux2_1
*I *2989:X O *D sg13cmos5l_dlygate4sd3_1
*CAP
1 *2837:A1 0
2 *2845:A0 0
3 *2989:X 0.000409329
4 *268:29 0.00039427
5 *268:16 0.000195441
6 *268:10 0.00099904
7 *268:16 *277:18 0.000874344
8 *268:29 *276:28 0.000661801
9 *268:29 *276:47 0.000181192
10 *268:29 *277:18 0
11 *2844:A1 *268:16 0
12 *2856:D *268:29 0
13 *2874:CLK *268:29 0
14 *163:16 *268:10 0
15 *163:20 *268:10 0
16 *176:16 *268:29 0.000820066
17 *242:29 *268:10 0
18 *242:29 *268:29 0
19 *242:31 *268:10 0
20 *242:90 *268:16 0.000553662
*RES
1 *2989:X *268:10 24.0479 
2 *268:10 *268:16 44.0582 
3 *268:16 *2845:A0 20 
4 *268:10 *268:29 45.7954 
5 *268:29 *2837:A1 20 
*END

*D_NET *269 0.000629082
*CONN
*I *2866:D I *D sg13cmos5l_dfrbpq_1
*I *2990:X O *D sg13cmos5l_dlygate4sd3_1
*CAP
1 *2866:D 0.00019345
2 *2990:X 0.00019345
3 *2847:A0 *2866:D 0
4 *243:83 *2866:D 0
5 *256:44 *2866:D 0.000242181
*RES
1 *2990:X *2866:D 42.2145 
*END

*D_NET *270 0.00332993
*CONN
*I *2830:A1 I *D sg13cmos5l_mux2_1
*I *2838:A0 I *D sg13cmos5l_mux2_1
*I *2991:X O *D sg13cmos5l_dlygate4sd3_1
*CAP
1 *2830:A1 0
2 *2838:A0 0.000255363
3 *2991:X 0.00035999
4 *270:23 0.000526596
5 *270:8 0.00114195
6 *2830:A0 *270:23 0.000371323
7 *2908:adc_ref[6] *270:23 0
8 *2991:A *270:8 0
9 *141:14 *270:23 0.000112535
10 *159:78 *270:23 0.000287758
11 *234:24 *270:8 0.000274419
12 *245:26 *270:23 0
13 *258:10 *270:8 0
*RES
1 *2991:X *270:8 23.9758 
2 *270:8 *2838:A0 22.4823 
3 *270:8 *270:23 45.7989 
4 *270:23 *2830:A1 20 
*END

*D_NET *271 0.000250697
*CONN
*I *2859:D I *D sg13cmos5l_dfrbpq_1
*I *2992:X O *D sg13cmos5l_dlygate4sd3_1
*CAP
1 *2859:D 0.000125349
2 *2992:X 0.000125349
3 *2859:RESET_B *2859:D 0
4 *166:26 *2859:D 0
*RES
1 *2992:X *2859:D 41.1845 
*END

*D_NET *272 0.00293381
*CONN
*I *2842:A0 I *D sg13cmos5l_mux2_1
*I *2834:A1 I *D sg13cmos5l_mux2_1
*I *2993:X O *D sg13cmos5l_dlygate4sd3_1
*CAP
1 *2842:A0 0.000274722
2 *2834:A1 0.000658588
3 *2993:X 0.000211837
4 *272:10 0.00114515
5 *2834:A0 *2834:A1 1.54449e-05
6 *2933:A *2834:A1 0
7 *2933:A *272:10 0
8 *2994:A *2842:A0 0
9 *162:10 *272:10 7.96596e-05
10 *163:10 *2842:A0 0.00046875
11 *164:8 *272:10 7.96596e-05
12 *164:10 *2834:A1 0
13 *164:10 *272:10 0
14 *164:22 *2834:A1 0
15 *164:55 *272:10 0
16 *257:6 *2834:A1 0
17 *257:6 *2842:A0 0
18 *257:17 *2834:A1 0
19 *257:17 *2842:A0 0
*RES
1 *2993:X *272:10 42.369 
2 *272:10 *2834:A1 46.2006 
3 *272:10 *2842:A0 43.1312 
*END

*D_NET *273 0.00120742
*CONN
*I *2863:D I *D sg13cmos5l_dfrbpq_1
*I *2994:X O *D sg13cmos5l_dlygate4sd3_1
*CAP
1 *2863:D 6.79711e-05
2 *2994:X 0.000190812
3 *273:10 0.000258783
4 *2842:S *2863:D 0
5 *2842:S *273:10 0.000183244
6 *141:43 *273:10 0.000213056
7 *141:45 *273:10 0.000181192
8 *162:10 *2863:D 0
9 *163:10 *273:10 0
10 *176:16 *273:10 0.00011236
*RES
1 *2994:X *273:10 42.5853 
2 *273:10 *2863:D 40.5356 
*END

*D_NET *274 0.00360704
*CONN
*I *2833:A1 I *D sg13cmos5l_mux2_1
*I *2841:A0 I *D sg13cmos5l_mux2_1
*I *2995:X O *D sg13cmos5l_dlygate4sd3_1
*CAP
1 *2833:A1 0
2 *2841:A0 0
3 *2995:X 0
4 *274:25 0.000434766
5 *274:12 0.000396467
6 *274:4 0.000831232
7 *2862:RESET_B *274:25 0
8 *2908:dac_out[4] *274:12 0
9 *141:30 *274:25 0.000554994
10 *187:10 *274:12 0
11 *255:16 *274:12 0
12 *255:16 *274:25 0
13 *256:44 *274:12 0.000112684
14 *256:44 *274:25 0.000242209
15 *260:28 *274:12 0
16 *260:28 *274:25 0.00103469
*RES
1 *2995:X *274:4 20 
2 *274:4 *274:12 44.0685 
3 *274:12 *2841:A0 20 
4 *274:4 *274:25 46.4169 
5 *274:25 *2833:A1 20 
*END

*D_NET *275 0.000977091
*CONN
*I *2862:D I *D sg13cmos5l_dfrbpq_1
*I *2996:X O *D sg13cmos5l_dlygate4sd3_1
*CAP
1 *2862:D 0.000142641
2 *2996:X 0.000152268
3 *275:8 0.000294909
4 *2841:A1 *2862:D 0.000145053
5 *2841:A1 *275:8 0
6 *2864:RESET_B *2862:D 0
7 *78:10 *275:8 0
8 *187:10 *275:8 0
9 *243:60 *2862:D 0.00024222
*RES
1 *2996:X *275:8 41.5862 
2 *275:8 *2862:D 41.6171 
*END

*D_NET *276 0.0310833
*CONN
*I *2806:A0 I *D sg13cmos5l_mux2_1
*I *2835:A0 I *D sg13cmos5l_mux2_1
*I *3039:X O *D sg13cmos5l_buf_1
*CAP
1 *2806:A0 0
2 *2835:A0 2.60565e-05
3 *3039:X 0.00280695
4 *276:47 0.00124898
5 *276:28 0.00813127
6 *276:26 0.00685623
7 *276:24 0.000510966
8 *276:16 0.00331792
9 *2835:A0 *277:18 4.77425e-05
10 *276:16 *2895:D 0.000274611
11 *276:16 *298:14 0
12 *276:16 *298:18 0
13 *276:28 *289:10 0
14 *276:28 *298:20 0
15 *276:28 *335:10 0
16 *276:47 *277:18 0
17 uio_oe[2] *276:16 0
18 uio_oe[3] *276:16 0
19 uio_oe[4] *276:16 0
20 uio_oe[5] *276:16 0
21 uio_oe[6] *276:16 0
22 *2806:S *276:47 0
23 *2824:A2 *276:24 0
24 *2824:B1 *276:24 0.000274633
25 *2872:RESET_B *276:47 0
26 *2872:D *276:47 0.000242313
27 *2874:CLK *2835:A0 4.77425e-05
28 *2904:RESET_B *276:28 0
29 *2906:A *276:24 0
30 *2989:A *276:47 0.000532587
31 *2990:A *276:47 0
32 *2998:A *276:16 0
33 *2998:A *276:24 0
34 *3034:A *276:16 6.18224e-06
35 *3035:A *276:16 0.000242203
36 *3036:A *276:16 0.00017663
37 *3037:A *276:16 0.000176603
38 *3038:A *276:16 0.00011233
39 *3039:A *276:16 1.54008e-05
40 *3047:A *276:24 0.000177028
41 *3051:A *276:24 0
42 *57:10 *276:16 0.000242203
43 *61:10 *276:28 0.000822643
44 *143:24 *276:24 0
45 *162:40 *276:47 0
46 *163:14 *276:28 0
47 *172:12 *276:47 0.000242313
48 *176:16 *276:28 0
49 *176:16 *276:47 0
50 *202:20 *276:16 0
51 *213:8 *276:16 0
52 *234:8 *276:16 4.78343e-05
53 *235:6 *276:16 0
54 *235:18 *276:16 0.000101616
55 *235:29 *276:24 0
56 *236:22 *276:28 0
57 *238:14 *276:24 0
58 *242:31 *276:47 0
59 *251:59 *276:28 0
60 *255:26 *276:47 0.000435462
61 *256:44 *276:47 0
62 *257:23 *276:28 0
63 *257:45 *276:28 0
64 *260:12 *276:16 4.78982e-05
65 *265:12 *276:16 0.00273664
66 *265:12 *276:24 0.000339306
67 *265:18 *276:28 0
68 *265:22 *276:28 0
69 *268:29 *276:28 0.000661801
70 *268:29 *276:47 0.000181192
*RES
1 *3039:X *276:16 49.4786 
2 *276:16 *276:24 45.4899 
3 *276:24 *276:26 20 
4 *276:26 *276:28 75.0046 
5 *276:28 *2835:A0 40.3193 
6 *276:28 *276:47 33.6063 
7 *276:47 *2806:A0 20 
*END

*D_NET *277 0.00511221
*CONN
*I *2843:A0 I *D sg13cmos5l_mux2_1
*I *2835:A1 I *D sg13cmos5l_mux2_1
*I *2997:X O *D sg13cmos5l_dlygate4sd3_1
*CAP
1 *2843:A0 3.73836e-05
2 *2835:A1 0
3 *2997:X 0.000632669
4 *277:18 0.000846141
5 *277:10 0.00151619
6 *277:10 *280:8 0
7 *2835:A0 *277:18 4.77425e-05
8 *2843:S *277:10 0.000160013
9 *2843:S *277:18 0.000766108
10 *2844:A1 *277:18 0
11 *2874:CLK *277:18 0
12 *2908:dac_out[4] *277:10 0
13 *2908:dac_out[4] *277:18 0
14 *3000:A *277:10 0
15 *162:55 *277:10 0
16 *162:66 *277:10 0.000209516
17 *163:14 *277:18 2.20966e-05
18 *176:16 *277:18 0
19 *180:23 *277:10 0
20 *268:16 *277:18 0.000874344
21 *268:29 *277:18 0
22 *276:47 *277:18 0
*RES
1 *2997:X *277:10 46.4169 
2 *277:10 *277:18 30.9077 
3 *277:18 *2835:A1 20 
4 *277:10 *2843:A0 40.3193 
*END

*D_NET *278 0.00101865
*CONN
*I *2824:A1 I *D sg13cmos5l_a21o_1
*I *2998:X O *D sg13cmos5l_dlygate4sd3_1
*CAP
1 *2824:A1 0
2 *2998:X 0.000219398
3 *278:10 0.000219398
4 *2904:CLK *278:10 0.000242078
5 *2906:A *278:10 0.000209621
6 *133:49 *278:10 0.00012816
7 *143:24 *278:10 0
8 *240:8 *278:10 0
9 *265:18 *278:10 0
*RES
1 *2998:X *278:10 42.4617 
2 *278:10 *2824:A1 40 
*END

*D_NET *279 0.00162797
*CONN
*I *2882:D I *D sg13cmos5l_dfrbpq_1
*I *2999:X O *D sg13cmos5l_dlygate4sd3_1
*CAP
1 *2882:D 0.00014469
2 *2999:X 0.000404028
3 *279:8 0.000548718
4 *2882:RESET_B *2882:D 0
5 *58:10 *2882:D 0
6 *58:10 *279:8 0.000288502
7 *136:8 *2882:D 0.000242028
8 *238:14 *279:8 0
9 *265:18 *279:8 0
*RES
1 *2999:X *279:8 44.0582 
2 *279:8 *2882:D 41.6171 
*END

*D_NET *280 0.00100783
*CONN
*I *2843:A1 I *D sg13cmos5l_mux2_1
*I *3000:X O *D sg13cmos5l_dlygate4sd3_1
*CAP
1 *2843:A1 0
2 *3000:X 0.00038593
3 *280:8 0.00038593
4 *2843:S *280:8 0.000235971
5 *162:53 *280:8 0
6 *179:23 *280:8 0
7 *277:10 *280:8 0
*RES
1 *3000:X *280:8 43.3166 
2 *280:8 *2843:A1 40 
*END

*D_NET *281 0.000237463
*CONN
*I *2822:A1 I *D sg13cmos5l_a21o_1
*I *3001:X O *D sg13cmos5l_dlygate4sd3_1
*CAP
1 *2822:A1 9.47754e-05
2 *3001:X 9.47754e-05
3 *2822:B1 *2822:A1 4.79124e-05
4 *136:8 *2822:A1 0
*RES
1 *3001:X *2822:A1 41.1639 
*END

*D_NET *282 9.45957e-05
*CONN
*I *2881:D I *D sg13cmos5l_dfrbpq_1
*I *3002:X O *D sg13cmos5l_dlygate4sd3_1
*CAP
1 *2881:D 4.72978e-05
2 *3002:X 4.72978e-05
*RES
1 *3002:X *2881:D 40.5974 
*END

*D_NET *283 0.000138905
*CONN
*I *2814:A1 I *D sg13cmos5l_a21o_1
*I *3003:X O *D sg13cmos5l_dlygate4sd3_1
*CAP
1 *2814:A1 6.94525e-05
2 *3003:X 6.94525e-05
3 *265:12 *2814:A1 0
*RES
1 *3003:X *2814:A1 40.8446 
*END

*D_NET *284 0.000103958
*CONN
*I *2877:D I *D sg13cmos5l_dfrbpq_1
*I *3004:X O *D sg13cmos5l_dlygate4sd3_1
*CAP
1 *2877:D 5.19788e-05
2 *3004:X 5.19788e-05
*RES
1 *3004:X *2877:D 40.5974 
*END

*D_NET *285 0.00202185
*CONN
*I *2816:A1 I *D sg13cmos5l_a21o_1
*I *3005:X O *D sg13cmos5l_dlygate4sd3_1
*CAP
1 *2816:A1 0.00064831
2 *3005:X 0.00064831
3 *58:10 *2816:A1 0
4 *133:70 *2816:A1 0.000725226
5 *239:10 *2816:A1 0
*RES
1 *3005:X *2816:A1 46.2109 
*END

*D_NET *286 0.000472968
*CONN
*I *2878:D I *D sg13cmos5l_dfrbpq_1
*I *3006:X O *D sg13cmos5l_dlygate4sd3_1
*CAP
1 *2878:D 0.000148544
2 *3006:X 0.000148544
3 *2878:D *2820:A1 0.00017588
4 *2878:D *2879:D 0
*RES
1 *3006:X *2878:D 41.5347 
*END

*D_NET *287 0.0175482
*CONN
*I *2836:A0 I *D sg13cmos5l_mux2_1
*I *2807:A0 I *D sg13cmos5l_mux2_1
*I *3040:X O *D sg13cmos5l_buf_1
*CAP
1 *2836:A0 0.000255329
2 *2807:A0 4.80333e-05
3 *3040:X 0
4 *287:14 0.00551097
5 *287:12 0.00520761
6 *287:10 0.00306607
7 *287:8 0.00306607
8 *287:6 0
9 uio_out[4] *287:14 0
10 *2836:A1 *2836:A0 0
11 *2857:D *2836:A0 0
12 *2873:D *2807:A0 0
13 *230:10 *287:14 0.000394151
14 *239:16 *287:14 0
15 *242:72 *2836:A0 0
16 *242:72 *287:14 0
17 *257:31 *2836:A0 0
*RES
1 *3040:X *287:6 40 
2 *287:6 *287:8 20 
3 *287:8 *287:10 40.1185 
4 *287:10 *287:12 20 
5 *287:12 *287:14 65.611 
6 *287:14 *2807:A0 40.5356 
7 *287:14 *2836:A0 42.3084 
*END

*D_NET *288 0.00225783
*CONN
*I *2820:A1 I *D sg13cmos5l_a21o_1
*I *3007:X O *D sg13cmos5l_dlygate4sd3_1
*CAP
1 *2820:A1 0.000424657
2 *3007:X 0.000244068
3 *288:8 0.000668726
4 *2820:A1 *333:22 0
5 *2818:A2 *288:8 0.000425829
6 *2820:B1 *2820:A1 1.54556e-05
7 *2878:D *2820:A1 0.00017588
8 *59:10 *288:8 0
9 *133:94 *288:8 0.000287759
10 *133:98 *2820:A1 0
11 *133:106 *2820:A1 1.54556e-05
12 *137:8 *2820:A1 0
13 *238:14 *288:8 0
*RES
1 *3007:X *288:8 43.3166 
2 *288:8 *2820:A1 44.017 
*END

*D_NET *289 0.00128056
*CONN
*I *2880:D I *D sg13cmos5l_dfrbpq_1
*I *3008:X O *D sg13cmos5l_dlygate4sd3_1
*CAP
1 *2880:D 0
2 *3008:X 0.000228068
3 *289:10 0.000228068
4 *2821:A *289:10 0.000242017
5 *136:8 *289:10 0.000242028
6 *251:59 *289:10 0.000340375
7 *276:28 *289:10 0
*RES
1 *3008:X *289:10 43.2033 
2 *289:10 *2880:D 40 
*END

*D_NET *290 0.00115135
*CONN
*I *2825:A0 I *D sg13cmos5l_mux2_1
*I *3009:X O *D sg13cmos5l_dlygate4sd3_1
*CAP
1 *2825:A0 0.000125611
2 *3009:X 0.000361422
3 *290:8 0.000487033
4 *2825:A1 *2825:A0 0.00017729
5 *229:32 *290:8 0
6 *260:58 *2825:A0 0
*RES
1 *3009:X *290:8 44.0582 
2 *290:8 *2825:A0 41.4008 
*END

*D_NET *291 0.000605377
*CONN
*I *2826:A0 I *D sg13cmos5l_mux2_1
*I *3010:X O *D sg13cmos5l_dlygate4sd3_1
*CAP
1 *2826:A0 0
2 *3010:X 0.000302688
3 *291:8 0.000302688
4 *64:8 *291:8 0
*RES
1 *3010:X *291:8 43.3166 
2 *291:8 *2826:A0 40 
*END

*D_NET *292 0.000559919
*CONN
*I *2827:A0 I *D sg13cmos5l_mux2_1
*I *3011:X O *D sg13cmos5l_dlygate4sd3_1
*CAP
1 *2827:A0 0
2 *3011:X 0.00027996
3 *292:8 0.00027996
4 *65:8 *292:8 0
*RES
1 *3011:X *292:8 43.0694 
2 *292:8 *2827:A0 40 
*END

*D_NET *293 0.000919202
*CONN
*I *2828:A0 I *D sg13cmos5l_mux2_1
*I *3012:X O *D sg13cmos5l_dlygate4sd3_1
*CAP
1 *2828:A0 0
2 *3012:X 0.000208785
3 *293:8 0.000208785
4 *190:25 *293:8 0.000501632
*RES
1 *3012:X *293:8 43.0694 
2 *293:8 *2828:A0 40 
*END

*D_NET *294 0.00124043
*CONN
*I *2848:A1 I *D sg13cmos5l_mux2_1
*I *3013:X O *D sg13cmos5l_dlygate4sd3_1
*CAP
1 *2848:A1 0.000294884
2 *3013:X 0.000325334
3 *294:8 0.000620217
4 *294:8 *304:8 0
5 *2849:S *2848:A1 0
6 *2908:dac_out[13] *2848:A1 0
7 *170:10 *294:8 0
*RES
1 *3013:X *294:8 43.811 
2 *294:8 *2848:A1 43.1312 
*END

*D_NET *295 0.0040264
*CONN
*I *2747:A I *D sg13cmos5l_nor2b_1
*I *2803:A1 I *D sg13cmos5l_a21oi_1
*I *2802:A I *D sg13cmos5l_nor3_1
*I *2744:B I *D sg13cmos5l_nand2b_1
*I *3014:X O *D sg13cmos5l_dlygate4sd3_1
*CAP
1 *2747:A 0
2 *2803:A1 0
3 *2802:A 0
4 *2744:B 0.000138481
5 *3014:X 7.69523e-05
6 *295:59 0.000546418
7 *295:41 0.000141537
8 *295:31 0.000230485
9 *295:27 0.000360056
10 *295:12 0.000541166
11 *295:8 0.000754947
12 *2744:B *2893:D 0
13 *2744:B *315:8 0
14 *295:8 *306:50 0
15 *295:12 *315:8 0
16 *295:41 *2804:C 4.77425e-05
17 *295:59 *307:24 0
18 *2745:A *295:31 0
19 *2745:A *295:41 1.54008e-05
20 *2765:B *295:41 0.000181192
21 *2803:A2 *295:31 0.000129335
22 *2803:A2 *295:41 1.54008e-05
23 *95:10 *295:59 0
24 *95:22 *295:59 3.72284e-05
25 *95:35 *295:59 0
26 *114:29 *295:59 0.00012778
27 *116:14 *295:59 0
28 *222:8 *295:41 5.30319e-05
29 *245:20 *295:59 0.00012778
30 *249:113 *2744:B 0.000341436
31 *249:113 *295:12 0.000160033
*RES
1 *3014:X *295:8 40.8446 
2 *295:8 *295:12 1.6274 
3 *295:12 *2744:B 41.5862 
4 *295:12 *295:27 43.1312 
5 *295:27 *295:31 20.9682 
6 *295:31 *295:41 41.7304 
7 *295:41 *2802:A 20 
8 *295:31 *2803:A1 20 
9 *295:8 *295:59 45.8916 
10 *295:59 *2747:A 40 
*END

*D_NET *296 0.00233503
*CONN
*I *2804:C I *D sg13cmos5l_nor3_1
*I *3015:X O *D sg13cmos5l_dlygate4sd3_1
*CAP
1 *2804:C 0.000361902
2 *3015:X 0.000255234
3 *296:8 0.000617136
4 *2804:C *329:28 0.000143932
5 *296:8 *306:38 0
6 *296:8 *306:50 0
7 *2745:A *2804:C 0.000144086
8 *2769:A *296:8 0.000234224
9 *2802:B *2804:C 8.01938e-05
10 *2803:B1 *2804:C 0
11 *2804:B *2804:C 0
12 *244:70 *296:8 0.000450579
13 *295:41 *2804:C 4.77425e-05
*RES
1 *3015:X *296:8 43.0694 
2 *296:8 *2804:C 43.5638 
*END

*D_NET *297 0.000778938
*CONN
*I *2903:D I *D sg13cmos5l_dfrbpq_1
*I *3016:X O *D sg13cmos5l_dlygate4sd3_1
*CAP
1 *2903:D 0.00014433
2 *3016:X 0.000100582
3 *297:8 0.000244912
4 *2903:D *334:8 0
5 *2803:B1 *2903:D 0
6 *2803:B1 *297:8 0.000289113
7 *2804:A *297:8 0
8 *2812:B1 *2903:D 0
*RES
1 *3016:X *297:8 41.339 
2 *297:8 *2903:D 41.1845 
*END

*D_NET *298 0.028136
*CONN
*I *2837:A0 I *D sg13cmos5l_mux2_1
*I *2808:A0 I *D sg13cmos5l_mux2_1
*I *3041:X O *D sg13cmos5l_buf_1
*CAP
1 *2837:A0 8.58535e-05
2 *2808:A0 0.000808994
3 *3041:X 8.69917e-05
4 *298:22 0.000894848
5 *298:20 0.00706687
6 *298:18 0.00815541
7 *298:14 0.00335892
8 *298:8 0.00235736
9 *298:14 *2895:D 0
10 uio_oe[1] *298:18 0
11 uio_oe[2] *298:18 0
12 uio_oe[3] *298:14 1.54556e-05
13 uio_oe[3] *298:18 0
14 uio_oe[4] *298:14 0.000145206
15 uio_oe[5] *298:14 0.000145173
16 uio_oe[6] *298:14 8.01938e-05
17 uio_oe[7] *298:14 8.0194e-05
18 uio_out[5] *298:20 0
19 uio_out[6] *298:20 0
20 *2808:A1 *2808:A0 1.54008e-05
21 *2816:B1 *298:20 0
22 *2844:A1 *2808:A0 4.78195e-05
23 *2844:S *2808:A0 0
24 *2858:D *2808:A0 0.000209206
25 *2858:D *2837:A0 4.74163e-05
26 *2865:D *2808:A0 0
27 *2985:A *2808:A0 0
28 *3034:A *298:14 0.000242577
29 *3035:A *298:14 0.000242544
30 *3036:A *298:14 0.000177597
31 *3037:A *298:14 0.000177564
32 *3038:A *298:14 0.000112749
33 *3039:A *298:14 0.000112717
34 *57:10 *298:18 0
35 *81:10 *2808:A0 0
36 *133:85 *298:20 0
37 *152:10 *298:20 0
38 *163:10 *2808:A0 0
39 *163:10 *2837:A0 0
40 *163:14 *298:20 0
41 *164:34 *2808:A0 0
42 *164:34 *298:20 0
43 *171:8 *2808:A0 0
44 *202:10 *298:14 0
45 *224:12 *298:14 0.00277251
46 *235:6 *298:18 0
47 *238:20 *298:18 0.000696446
48 *242:66 *2808:A0 0
49 *257:31 *298:20 0
50 *257:47 *2837:A0 0
51 *257:49 *2808:A0 0
52 *276:16 *298:14 0
53 *276:16 *298:18 0
54 *276:28 *298:20 0
*RES
1 *3041:X *298:8 40.8446 
2 *298:8 *298:14 45.7912 
3 *298:14 *298:18 32.2158 
4 *298:18 *298:20 74.0158 
5 *298:20 *298:22 20 
6 *298:22 *2808:A0 28.6726 
7 *298:22 *2837:A0 20.5018 
*END

*D_NET *299 0.000836477
*CONN
*I *2812:A1 I *D sg13cmos5l_a21o_1
*I *3017:X O *D sg13cmos5l_dlygate4sd3_1
*CAP
1 *2812:A1 0.000394566
2 *3017:X 0.000394566
3 *2812:A1 *2813:B_N 0
4 *2812:A2 *2812:A1 1.69409e-05
5 *2812:B1 *2812:A1 1.54556e-05
6 *2876:CLK *2812:A1 0
7 *3018:A *2812:A1 1.49483e-05
8 *115:34 *2812:A1 0
*RES
1 *3017:X *2812:A1 43.811 
*END

*D_NET *300 0.00101851
*CONN
*I *2876:D I *D sg13cmos5l_dfrbpq_1
*I *3018:X O *D sg13cmos5l_dlygate4sd3_1
*CAP
1 *2876:D 0
2 *3018:X 0.000259789
3 *300:10 0.000259789
4 *2812:B1 *300:10 0
5 *2877:RESET_B *300:10 7.52149e-05
6 *134:8 *300:10 0
7 *250:37 *300:10 0.000226704
8 *250:41 *300:10 1.54008e-05
9 *250:58 *300:10 0.000181608
*RES
1 *3018:X *300:10 42.9561 
2 *300:10 *2876:D 40 
*END

*D_NET *301 0.000133739
*CONN
*I *2818:A1 I *D sg13cmos5l_a21o_1
*I *3019:X O *D sg13cmos5l_dlygate4sd3_1
*CAP
1 *2818:A1 6.68694e-05
2 *3019:X 6.68694e-05
*RES
1 *3019:X *2818:A1 40.8446 
*END

*D_NET *302 0.000392435
*CONN
*I *2879:D I *D sg13cmos5l_dfrbpq_1
*I *3020:X O *D sg13cmos5l_dlygate4sd3_1
*CAP
1 *2879:D 0.000124318
2 *3020:X 0.000124318
3 *2878:D *2879:D 0
4 *133:98 *2879:D 0.000143799
*RES
1 *3020:X *2879:D 41.1845 
*END

*D_NET *303 0.00155507
*CONN
*I *2847:A1 I *D sg13cmos5l_mux2_1
*I *3021:X O *D sg13cmos5l_dlygate4sd3_1
*CAP
1 *2847:A1 5.49253e-05
2 *3021:X 0.00044607
3 *303:10 0.000500995
4 *2872:RESET_B *303:10 7.62277e-05
5 *163:33 *303:10 0
6 *163:46 *303:10 0
7 *163:55 *303:10 0
8 *243:93 *2847:A1 0
9 *255:37 *2847:A1 4.77425e-05
10 *255:52 *303:10 0.000429114
11 *260:36 *303:10 0
*RES
1 *3021:X *303:10 44.5629 
2 *303:10 *2847:A1 40.5356 
*END

*D_NET *304 0.000680814
*CONN
*I *2849:A1 I *D sg13cmos5l_mux2_1
*I *3022:X O *D sg13cmos5l_dlygate4sd3_1
*CAP
1 *2849:A1 0.000120961
2 *3022:X 0.000219446
3 *304:8 0.000340407
4 *294:8 *304:8 0
*RES
1 *3022:X *304:8 42.8222 
2 *304:8 *2849:A1 41.1845 
*END

*D_NET *305 0.000665561
*CONN
*I *2806:A1 I *D sg13cmos5l_mux2_1
*I *3023:X O *D sg13cmos5l_dlygate4sd3_1
*CAP
1 *2806:A1 0.000130639
2 *3023:X 0.000202142
3 *305:8 0.00033278
4 *172:12 *2806:A1 0
5 *256:44 *305:8 0
*RES
1 *3023:X *305:8 42.3278 
2 *305:8 *2806:A1 41.1845 
*END

*D_NET *306 0.00810997
*CONN
*I *2764:B I *D sg13cmos5l_nand2_1
*I *2745:B I *D sg13cmos5l_nor3_1
*I *2767:B I *D sg13cmos5l_nor2_1
*I *2799:A I *D sg13cmos5l_nor3_1
*I *2800:A2 I *D sg13cmos5l_a21oi_1
*I *3024:X O *D sg13cmos5l_dlygate4sd3_1
*CAP
1 *2764:B 0
2 *2745:B 0
3 *2767:B 6.6664e-05
4 *2799:A 0
5 *2800:A2 0
6 *3024:X 0.000775474
7 *306:50 0.000841851
8 *306:38 0.000989605
9 *306:24 0.000353181
10 *306:14 0.000528609
11 *306:12 0.00116532
12 *2767:B *315:8 0
13 *2767:B *326:14 0.000235303
14 *306:12 *2972:A 0
15 *306:24 *330:20 0.000448401
16 *306:38 *331:20 0.00034172
17 *306:50 *3014:A 0
18 *306:50 *326:14 0
19 *306:50 *328:22 0
20 *2745:A *306:50 0
21 *2757:A2 *306:12 0.000759254
22 *2769:A *306:38 0
23 *2771:A2 *306:14 0
24 *2771:A2 *306:24 0
25 *2799:C *306:24 0
26 *2800:A1 *306:24 4.7803e-05
27 *2802:C *306:50 0.0001127
28 *2902:D *306:24 0.000240668
29 *3015:A *306:14 0.000241088
30 *89:80 *306:12 0.000137132
31 *100:12 *306:12 0.000232007
32 *105:8 *306:50 0
33 *128:8 *306:24 0.000287672
34 *160:10 *306:12 0.000112651
35 *224:20 *306:38 0
36 *224:20 *306:50 0
37 *246:29 *306:24 0.000192865
38 *249:72 *306:14 0
39 *250:31 *306:50 0
40 *295:8 *306:50 0
41 *296:8 *306:38 0
42 *296:8 *306:50 0
*RES
1 *3024:X *306:12 28.5078 
2 *306:12 *306:14 1.8334 
3 *306:14 *306:24 44.4496 
4 *306:24 *2800:A2 20 
5 *306:14 *2799:A 20 
6 *306:12 *306:38 22.575 
7 *306:38 *306:50 46.4446 
8 *306:50 *2767:B 41.0918 
9 *306:50 *2745:B 40 
10 *306:38 *2764:B 40 
*END

*D_NET *307 0.00517816
*CONN
*I *2759:B I *D sg13cmos5l_nand2b_1
*I *2778:B I *D sg13cmos5l_and2_1
*I *2745:C I *D sg13cmos5l_nor3_1
*I *3025:X O *D sg13cmos5l_dlygate4sd3_1
*CAP
1 *2759:B 0.000575848
2 *2778:B 0
3 *2745:C 0
4 *3025:X 0.000192286
5 *307:39 0.000438724
6 *307:24 0.00056757
7 *307:14 0.00113673
8 *307:10 0.000898567
9 *2759:B *309:12 0
10 *307:24 *2775:C 0
11 *307:24 *326:14 0.000130095
12 *2905:D *2759:B 0
13 *102:10 *2759:B 0
14 *107:8 *307:24 0.000131027
15 *114:12 *307:39 0.000467851
16 *143:43 *307:10 0
17 *160:28 *307:39 0
18 *191:33 *307:10 4.75151e-05
19 *244:18 *2759:B 0
20 *244:18 *307:39 0.000182266
21 *248:33 *307:39 0
22 *248:57 *2759:B 1.54008e-05
23 *249:10 *2759:B 0
24 *256:10 *307:10 0.000394283
25 *256:10 *307:39 0
26 *295:59 *307:24 0
*RES
1 *3025:X *307:10 42.1527 
2 *307:10 *307:14 21.6171 
3 *307:14 *307:24 45.9946 
4 *307:24 *2745:C 20 
5 *307:14 *307:39 44.8204 
6 *307:39 *2778:B 20 
7 *307:10 *2759:B 45.0779 
*END

*D_NET *308 0.00157902
*CONN
*I *2887:D I *D sg13cmos5l_dfrbpq_1
*I *3026:X O *D sg13cmos5l_dlygate4sd3_1
*CAP
1 *2887:D 0
2 *3026:X 0.00030786
3 *308:10 0.00030786
4 *51:10 *308:10 7.98567e-05
5 *94:12 *308:10 0
6 *160:24 *308:10 0.0001757
7 *248:10 *308:10 0
8 *254:12 *308:10 4.75229e-05
9 *256:10 *308:10 0.000660226
*RES
1 *3026:X *308:10 44.2539 
2 *308:10 *2887:D 40 
*END

*D_NET *309 0.00483215
*CONN
*I *3026:A I *D sg13cmos5l_dlygate4sd3_1
*I *2775:B I *D sg13cmos5l_nor4_1
*I *2760:Y O *D sg13cmos5l_a21oi_1
*CAP
1 *3026:A 0
2 *2775:B 0
3 *2760:Y 0.000688731
4 *309:32 0.00017448
5 *309:22 0.000863341
6 *309:12 0.00107299
7 *309:8 0.00107286
8 *309:8 *310:18 0.000235398
9 *309:32 *326:14 0
10 *2759:B *309:12 0
11 *2775:A *309:22 0
12 *2905:RESET_B *309:8 0
13 *2905:RESET_B *309:12 0
14 *2905:CLK *309:12 0
15 *2930:A *309:12 0
16 *95:22 *309:32 0.000183897
17 *102:10 *309:8 0
18 *112:12 *309:32 0
19 *115:26 *309:22 8.09323e-05
20 *160:24 *309:22 0
21 *160:28 *309:22 0
22 *221:12 *309:12 0
23 *234:14 *309:32 0.000181521
24 *248:25 *309:22 0.000114183
25 *248:46 *309:8 0
26 *248:46 *309:22 0.000163819
27 *249:21 *309:8 0
28 *252:27 *309:12 0
29 *252:40 *309:8 0
30 *254:12 *309:12 0
*RES
1 *2760:Y *309:8 46.0358 
2 *309:8 *309:12 23.5638 
3 *309:12 *309:22 45.9946 
4 *309:22 *309:32 42.472 
5 *309:32 *2775:B 20 
6 *309:12 *3026:A 20 
*END

*D_NET *310 0.00602783
*CONN
*I *2956:A I *D sg13cmos5l_dlygate4sd3_1
*I *2776:B I *D sg13cmos5l_nor4_1
*I *2763:Y O *D sg13cmos5l_a21oi_1
*CAP
1 *2956:A 0.000310274
2 *2776:B 0
3 *2763:Y 4.20545e-05
4 *310:18 0.00130864
5 *310:8 0.00166097
6 *310:18 *2776:C 4.78028e-05
7 *310:18 *2894:D 0.000249936
8 *310:18 *2977:A 0
9 *310:18 *328:22 0.000434781
10 *2763:A2 *310:8 0
11 *2763:B1 *310:18 0
12 *2768:A *310:18 0
13 *2786:C *310:18 0
14 *2787:C *2956:A 0
15 *89:42 *2956:A 0
16 *101:22 *310:18 0
17 *113:12 *310:18 0
18 *116:10 *310:18 0
19 *116:109 *310:18 0.000112198
20 *117:10 *310:8 0
21 *191:33 *310:18 0
22 *220:6 *310:18 0.000208786
23 *220:14 *310:18 0.00030522
24 *247:14 *2956:A 0
25 *249:21 *310:18 0.00028843
26 *249:36 *2956:A 0.000587065
27 *249:36 *310:18 0.000236276
28 *309:8 *310:18 0.000235398
*RES
1 *2763:Y *310:8 40.3193 
2 *310:8 *310:18 33.9153 
3 *310:18 *2776:B 20 
4 *310:8 *2956:A 43.5741 
*END

*D_NET *311 0.000462083
*CONN
*I *2977:A I *D sg13cmos5l_dlygate4sd3_1
*I *2754:Y O *D sg13cmos5l_a21oi_1
*CAP
1 *2977:A 0.000191228
2 *2754:Y 0.000191228
3 *2754:B1 *2977:A 7.96263e-05
4 *101:22 *2977:A 0
5 *191:33 *2977:A 0
6 *310:18 *2977:A 0
*RES
1 *2754:Y *2977:A 41.751 
*END

*D_NET *312 0.00422309
*CONN
*I *2890:D I *D sg13cmos5l_dfrbpq_1
*I *2776:A I *D sg13cmos5l_nor4_1
*I *2757:Y O *D sg13cmos5l_a21oi_1
*CAP
1 *2890:D 0
2 *2776:A 0
3 *2757:Y 0.000329688
4 *312:33 0.000624472
5 *312:12 0.000379243
6 *312:6 0.0013334
7 *312:12 *329:20 0
8 *2746:B *312:33 4.9365e-05
9 *2746:C *312:33 3.75703e-05
10 *2757:A1 *312:6 0.000435346
11 *2757:A1 *312:12 0
12 *2757:A2 *312:33 0
13 *2773:B *312:33 0
14 *2792:C *312:33 0.000176383
15 *2892:CLK *312:6 0
16 *2892:CLK *312:33 0
17 *2912:A *312:6 0
18 *89:80 *312:6 0.000112426
19 *89:80 *312:33 0.00024122
20 *89:92 *312:6 0
21 *92:10 *312:33 0.00050398
22 *100:12 *312:12 0
23 *116:55 *312:33 0
24 *122:16 *312:33 0
25 *214:20 *312:12 0
26 *214:20 *312:33 0
27 *215:28 *312:6 0
28 *216:34 *312:12 0
29 *223:8 *312:33 0
30 *245:20 *312:33 0
31 *249:56 *312:6 0
*RES
1 *2757:Y *312:6 23.3475 
2 *312:6 *312:12 44.0582 
3 *312:12 *2776:A 20 
4 *312:6 *312:33 47.2615 
5 *312:33 *2890:D 20 
*END

*D_NET *313 0.00160731
*CONN
*I *2970:A I *D sg13cmos5l_dlygate4sd3_1
*I *2774:Y O *D sg13cmos5l_a21oi_1
*CAP
1 *2970:A 2.60565e-05
2 *2774:Y 0.000220768
3 *313:14 0.00051074
4 *313:8 0.000705451
5 *313:8 *328:38 0
6 *313:8 *330:10 0
7 *313:14 *330:14 0
8 *2795:B *2970:A 4.77425e-05
9 *110:33 *313:8 0
10 *197:22 *313:14 4.88114e-05
11 *207:14 *313:14 0
12 *214:12 *2970:A 4.77425e-05
13 *246:63 *313:14 0
14 *246:115 *313:14 0
15 *252:80 *313:8 0
*RES
1 *2774:Y *313:8 42.0806 
2 *313:8 *313:14 45.2942 
3 *313:14 *2970:A 40.3193 
*END

*D_NET *314 0.00223853
*CONN
*I *2972:A I *D sg13cmos5l_dlygate4sd3_1
*I *2771:Y O *D sg13cmos5l_a21oi_1
*CAP
1 *2972:A 0.000816983
2 *2771:Y 0.000816983
3 *2972:A *2769:B 7.50789e-05
4 *2972:A *324:36 7.94055e-05
5 *2972:A *327:20 0.000208834
6 *2771:A1 *2972:A 0.000144091
7 *2799:C *2972:A 9.71568e-05
8 *2892:RESET_B *2972:A 0
9 *3015:A *2972:A 0
10 *160:10 *2972:A 0
11 *160:18 *2972:A 0
12 *306:12 *2972:A 0
*RES
1 *2771:Y *2972:A 48.2915 
*END

*D_NET *315 0.00245206
*CONN
*I *2775:C I *D sg13cmos5l_nor4_1
*I *2893:D I *D sg13cmos5l_dfrbpq_1
*I *2766:Y O *D sg13cmos5l_a21oi_1
*CAP
1 *2775:C 0.000399298
2 *2893:D 0.000608784
3 *2766:Y 0.000121718
4 *315:8 0.0011298
5 *2744:B *2893:D 0
6 *2744:B *315:8 0
7 *2745:A *2775:C 0
8 *2767:B *315:8 0
9 *2768:B *2775:C 0
10 *2775:A *2775:C 0
11 *2775:D *2775:C 0
12 *2893:RESET_B *2893:D 0
13 *2893:CLK *2775:C 0.000144691
14 *2893:CLK *2893:D 0
15 *2895:CLK *2893:D 0
16 *2927:A *2893:D 4.77702e-05
17 *91:14 *2775:C 0
18 *143:24 *2893:D 0
19 *244:32 *2775:C 0
20 *244:44 *2775:C 0
21 *249:113 *2893:D 0
22 *251:8 *2893:D 0
23 *254:12 *2893:D 0
24 *254:22 *2893:D 0
25 *295:12 *315:8 0
26 *307:24 *2775:C 0
*RES
1 *2766:Y *315:8 41.0918 
2 *315:8 *2893:D 45.871 
3 *315:8 *2775:C 43.8007 
*END

*D_NET *316 0.00140358
*CONN
*I *2894:D I *D sg13cmos5l_dfrbpq_1
*I *2776:C I *D sg13cmos5l_nor4_1
*I *2768:Y O *D sg13cmos5l_nor3_1
*CAP
1 *2894:D 0.000210505
2 *2776:C 2.82011e-05
3 *2768:Y 0.000132753
4 *316:10 0.000238706
5 *316:8 0.000132753
6 *316:8 *326:14 0.00018091
7 *113:12 *2894:D 3.8639e-05
8 *214:20 *2776:C 1.54008e-05
9 *214:20 *2894:D 0.000127979
10 *216:34 *316:8 0
11 *310:18 *2776:C 4.78028e-05
12 *310:18 *2894:D 0.000249936
*RES
1 *2768:Y *316:8 41.339 
2 *316:8 *316:10 20 
3 *316:10 *2776:C 20.3193 
4 *316:10 *2894:D 22.5338 
*END

*D_NET *317 0.0010994
*CONN
*I *2895:D I *D sg13cmos5l_dfrbpq_1
*I *2751:Y O *D sg13cmos5l_inv_1
*CAP
1 *2895:D 0.000170977
2 *2751:Y 0.000201321
3 *317:8 0.000372298
4 uio_oe[7] *2895:D 8.0194e-05
5 *228:22 *317:8 0
6 *276:16 *2895:D 0.000274611
7 *298:14 *2895:D 0
*RES
1 *2751:Y *317:8 42.3278 
2 *317:8 *2895:D 41.8334 
*END

*D_NET *318 0.000192252
*CONN
*I *3025:A I *D sg13cmos5l_dlygate4sd3_1
*I *2887:Q O *D sg13cmos5l_dfrbpq_1
*CAP
1 *3025:A 9.61258e-05
2 *2887:Q 9.61258e-05
3 *2775:A *3025:A 0
4 *244:18 *3025:A 0
*RES
1 *2887:Q *3025:A 41.1639 
*END

*D_NET *319 0.00126333
*CONN
*I *2955:A I *D sg13cmos5l_dlygate4sd3_1
*I *2888:Q O *D sg13cmos5l_dfrbpq_1
*CAP
1 *2955:A 3.77166e-05
2 *2888:Q 9.26106e-05
3 *319:8 0.000130327
4 *2888:CLK *319:8 0.000501547
5 *218:8 *319:8 0.000501131
*RES
1 *2888:Q *319:8 42.3278 
2 *319:8 *2955:A 40.3193 
*END

*D_NET *320 0.00170178
*CONN
*I *2982:A I *D sg13cmos5l_dlygate4sd3_1
*I *2976:A I *D sg13cmos5l_dlygate4sd3_1
*I *2889:Q O *D sg13cmos5l_dfrbpq_1
*CAP
1 *2982:A 0
2 *2976:A 0.000203726
3 *2889:Q 0
4 *320:23 0.000300028
5 *320:4 0.000503754
6 *2783:B2 *320:23 4.77425e-05
7 *2784:B1 *2976:A 0
8 *2787:C *320:23 4.77425e-05
9 *101:22 *2976:A 0
10 *101:22 *320:23 0
11 *120:12 *320:23 0.000235656
12 *160:18 *320:23 0.000181694
13 *197:33 *320:23 0.000181438
14 *247:32 *2976:A 0
15 *247:32 *320:23 0
16 *260:14 *320:23 0
*RES
1 *2889:Q *320:4 20 
2 *320:4 *2976:A 21.9673 
3 *320:4 *320:23 43.4299 
4 *320:23 *2982:A 20 
*END

*D_NET *321 0.00997256
*CONN
*I *2979:A I *D sg13cmos5l_dlygate4sd3_1
*I *2752:B I *D sg13cmos5l_nand2_1
*I *2787:A I *D sg13cmos5l_nor3_1
*I *2788:A2 I *D sg13cmos5l_a21oi_1
*I *2890:Q O *D sg13cmos5l_dfrbpq_1
*CAP
1 *2979:A 0.000129695
2 *2752:B 0.000348306
3 *2787:A 0.000131211
4 *2788:A2 0
5 *2890:Q 0.000158119
6 *321:44 0.000666584
7 *321:27 0.000790664
8 *321:25 0.000879547
9 *321:14 0.000507713
10 *321:6 0.00107451
11 *2979:A *329:12 0
12 *2979:A *329:20 0
13 *321:6 *322:35 0
14 *321:14 *322:35 0.00012816
15 *2763:A2 *2752:B 0.000175721
16 *2773:B *2979:A 0
17 *2782:B *2752:B 0
18 *2783:A1 *321:25 0.000585012
19 *2783:A1 *321:27 0.000926789
20 *2787:B *2787:A 0
21 *2787:C *2787:A 0
22 *2788:A1 *321:14 8.02924e-05
23 *2974:A *321:14 0
24 *101:10 *2752:B 0
25 *101:22 *321:44 0
26 *117:10 *2752:B 0
27 *143:43 *2787:A 7.65627e-05
28 *143:43 *321:25 0.000983416
29 *143:43 *321:27 0.0013587
30 *160:18 *2787:A 0.000144779
31 *161:70 *321:14 0
32 *197:46 *2752:B 0
33 *198:10 *2752:B 0.000110983
34 *219:8 *321:14 0
35 *247:52 *321:14 0
36 *252:57 *321:44 0.000408794
37 *253:48 *321:14 0.000307002
38 *256:10 *2787:A 0
39 *256:10 *321:25 0
40 *256:10 *321:27 0
*RES
1 *2890:Q *321:6 21.4008 
2 *321:6 *321:14 44.8719 
3 *321:14 *2788:A2 20 
4 *321:6 *321:25 25.7371 
5 *321:25 *321:27 6.283 
6 *321:27 *2787:A 41.3184 
7 *321:27 *321:44 43.7801 
8 *321:44 *2752:B 43.3475 
9 *321:25 *2979:A 40.9682 
*END

*D_NET *322 0.00435398
*CONN
*I *2790:A I *D sg13cmos5l_nor3_1
*I *2969:A I *D sg13cmos5l_dlygate4sd3_1
*I *2791:A2 I *D sg13cmos5l_a21oi_1
*I *2891:Q O *D sg13cmos5l_dfrbpq_1
*CAP
1 *2790:A 0.000625409
2 *2969:A 0
3 *2791:A2 0.000215956
4 *2891:Q 0.000422712
5 *322:35 0.00118652
6 *322:22 0.000767873
7 *2790:A *329:12 0.000207964
8 *2790:A *329:20 1.54556e-05
9 *322:35 *328:38 0.000448515
10 *2741:A *2790:A 0
11 *2773:B *2790:A 0
12 *2791:A1 *2791:A2 4.77425e-05
13 *2891:CLK *322:35 0
14 *2898:D *322:22 0
15 *2898:D *322:35 0
16 *2899:D *2791:A2 0
17 *2899:CLK *2791:A2 0
18 *88:8 *2790:A 0
19 *110:8 *2791:A2 0
20 *122:16 *2790:A 0
21 *161:38 *2790:A 0
22 *219:8 *322:35 0
23 *246:63 *2791:A2 0
24 *247:52 *322:35 0
25 *253:23 *2790:A 0
26 *253:33 *2790:A 0
27 *253:48 *322:35 0.000287672
28 *256:10 *322:35 0
29 *321:6 *322:35 0
30 *321:14 *322:35 0.00012816
*RES
1 *2891:Q *2791:A2 42.2145 
2 *2891:Q *322:22 21.9982 
3 *322:22 *2969:A 20 
4 *322:22 *322:35 46.5714 
5 *322:35 *2790:A 25.7268 
*END

*D_NET *323 0.00550604
*CONN
*I *2793:A I *D sg13cmos5l_nor3_1
*I *2772:B I *D sg13cmos5l_nand2_1
*I *2794:A2 I *D sg13cmos5l_a21oi_1
*I *2971:A I *D sg13cmos5l_dlygate4sd3_1
*I *2892:Q O *D sg13cmos5l_dfrbpq_1
*CAP
1 *2793:A 0.000172141
2 *2772:B 0.000516111
3 *2794:A2 0.000206281
4 *2971:A 0.000312913
5 *2892:Q 0
6 *323:25 0.00118646
7 *323:10 0.000990521
8 *323:4 0.000385682
9 *2971:A *331:10 0.00020884
10 *323:10 *329:20 0
11 *2794:A1 *2794:A2 0.000371659
12 *2795:A *323:10 0.00018239
13 *2795:B *2793:A 0
14 *2795:B *2971:A 0
15 *2795:B *323:10 0
16 *2899:RESET_B *2772:B 0
17 *2899:D *2772:B 0
18 *2899:CLK *2772:B 0
19 *2900:RESET_B *2794:A2 0
20 *2959:A *2794:A2 0.000242018
21 *116:55 *2793:A 0
22 *116:55 *323:10 2.21356e-05
23 *157:55 *2772:B 0
24 *157:55 *323:10 0
25 *157:55 *323:25 0
26 *201:8 *323:10 7.52149e-05
27 *201:8 *323:25 0.00058593
28 *204:12 *2971:A 4.77425e-05
29 *215:28 *2971:A 0
30 *228:24 *2772:B 0
31 *254:22 *323:25 0
*RES
1 *2892:Q *323:4 20 
2 *323:4 *323:10 22.1527 
3 *323:10 *2971:A 43.2451 
4 *323:10 *323:25 4.7998 
5 *323:25 *2794:A2 42.4823 
6 *323:25 *2772:B 44.6865 
7 *323:4 *2793:A 21.4008 
*END

*D_NET *324 0.00517839
*CONN
*I *2796:A2 I *D sg13cmos5l_a21oi_1
*I *2797:A I *D sg13cmos5l_nor3_1
*I *2769:B I *D sg13cmos5l_nand2_1
*I *2978:A I *D sg13cmos5l_dlygate4sd3_1
*I *2893:Q O *D sg13cmos5l_dfrbpq_1
*CAP
1 *2796:A2 0.000605624
2 *2797:A 0.000131708
3 *2769:B 4.0976e-05
4 *2978:A 6.82866e-05
5 *2893:Q 0.00015313
6 *324:36 0.00104124
7 *324:23 0.000386878
8 *324:10 0.000263416
9 *2769:B *327:20 7.50789e-05
10 *2796:A2 *2968:A 0.00033942
11 *2796:A2 *330:20 0
12 *2796:A2 *331:20 0
13 *2978:A *328:22 0
14 *324:36 *327:20 6.46513e-05
15 *324:36 *331:20 0
16 *2769:A *2978:A 0
17 *2802:C *324:10 0
18 *2972:A *2769:B 7.50789e-05
19 *2972:A *324:36 7.94055e-05
20 *89:98 *2797:A 0
21 *116:47 *2796:A2 0
22 *126:10 *2796:A2 0
23 *131:8 *324:10 0.000288282
24 *131:8 *324:23 0.000214748
25 *204:12 *2796:A2 0
26 *210:8 *2796:A2 0
27 *246:29 *324:36 0
28 *246:44 *2796:A2 4.78521e-05
29 *249:66 *2797:A 0
30 *249:72 *2797:A 0
31 *249:72 *324:36 0.000556348
32 *249:74 *324:10 0.000288688
33 *249:74 *324:23 0.000236844
34 *249:74 *324:36 7.68089e-05
35 *250:31 *324:10 0.000143932
*RES
1 *2893:Q *324:10 42.3072 
2 *324:10 *2978:A 40.5356 
3 *324:10 *324:23 21.0918 
4 *324:23 *2769:B 20.5021 
5 *324:23 *324:36 23.8522 
6 *324:36 *2797:A 40.9682 
7 *324:36 *2796:A2 45.7062 
*END

*D_NET *325 0.000465508
*CONN
*I *3024:A I *D sg13cmos5l_dlygate4sd3_1
*I *2894:Q O *D sg13cmos5l_dfrbpq_1
*CAP
1 *3024:A 0.000225053
2 *2894:Q 0.000225053
3 *89:80 *3024:A 0
4 *116:55 *3024:A 0
5 *116:59 *3024:A 1.54008e-05
*RES
1 *2894:Q *3024:A 42.2454 
*END

*D_NET *326 0.00199924
*CONN
*I *3014:A I *D sg13cmos5l_dlygate4sd3_1
*I *2895:Q O *D sg13cmos5l_dfrbpq_1
*CAP
1 *3014:A 0.000135649
2 *2895:Q 0.000534541
3 *326:14 0.00067019
4 *3014:A *328:22 0
5 *326:14 *329:20 0
6 *2767:B *326:14 0.000235303
7 *2892:D *3014:A 0.000112556
8 *2893:CLK *326:14 0
9 *107:8 *326:14 0
10 *306:50 *3014:A 0
11 *306:50 *326:14 0
12 *307:24 *326:14 0.000130095
13 *309:32 *326:14 0
14 *316:8 *326:14 0.00018091
*RES
1 *2895:Q *326:14 45.974 
2 *326:14 *3014:A 41.4008 
*END

*D_NET *327 0.00910106
*CONN
*I *2896:D I *D sg13cmos5l_dfrbpq_1
*I *2810:A0 I *D sg13cmos5l_mux2_1
*I *2783:Y O *D sg13cmos5l_a221oi_1
*CAP
1 *2896:D 0
2 *2810:A0 0
3 *2783:Y 0.000834294
4 *327:36 0.000475708
5 *327:20 0.00180279
6 *327:10 0.00216138
7 *327:20 *2817:B_N 0.000759702
8 *327:20 *328:22 0
9 *327:36 *329:8 0.000500259
10 *2769:A *327:20 0.000176571
11 *2769:B *327:20 7.50789e-05
12 *2771:A1 *327:20 0
13 *2771:B1 *327:20 4.7803e-05
14 *2783:B2 *327:36 0
15 *2783:B1 *327:10 0
16 *2783:A1 *327:36 4.75151e-05
17 *2810:A1 *327:20 0
18 *2817:A *327:20 0
19 *2892:RESET_B *327:20 0.000112569
20 *2972:A *327:20 0.000208834
21 *89:42 *327:36 0
22 *89:80 *327:10 0
23 *120:12 *327:36 0.000501131
24 *133:98 *327:20 1.54008e-05
25 *137:8 *327:20 0
26 *143:43 *327:36 0
27 *151:8 *327:20 0
28 *160:10 *327:20 0
29 *197:33 *327:36 0
30 *216:10 *327:20 0
31 *216:34 *327:20 0
32 *234:18 *327:10 0.000554511
33 *245:20 *327:10 0.000554801
34 *251:33 *327:20 0
35 *252:67 *327:20 0.000208063
36 *260:14 *327:36 0
37 *324:36 *327:20 6.46513e-05
*RES
1 *2783:Y *327:10 44.6247 
2 *327:10 *327:20 38.025 
3 *327:20 *2810:A0 20 
4 *2783:Y *327:36 45.4899 
5 *327:36 *2896:D 40 
*END

*D_NET *328 0.0105949
*CONN
*I *2897:D I *D sg13cmos5l_dfrbpq_1
*I *2811:B_N I *D sg13cmos5l_nor2b_1
*I *2786:Y O *D sg13cmos5l_nor3_1
*CAP
1 *2897:D 0
2 *2811:B_N 0
3 *2786:Y 0.00194448
4 *328:38 0.000636122
5 *328:34 0.000636122
6 *328:22 0.00194448
7 *328:22 *2817:B_N 0
8 *328:22 *3016:A 0
9 *328:22 *330:28 0.000791572
10 *2764:A *328:22 1.51e-05
11 *2769:A *328:22 0
12 *2783:A2 *328:38 0
13 *2785:C *328:22 0.000274507
14 *2817:A *328:22 0
15 *2892:D *328:22 0.000111385
16 *2978:A *328:22 0
17 *3014:A *328:22 0
18 *110:33 *328:38 7.5116e-05
19 *116:65 *328:38 0.000446853
20 *216:10 *328:22 7.96596e-05
21 *216:34 *328:22 4.74145e-05
22 *220:14 *328:38 0.000236596
23 *246:53 *328:38 0
24 *247:52 *328:38 0
25 *250:31 *328:22 0
26 *252:67 *328:22 0
27 *252:80 *328:38 0
28 *256:10 *328:38 0.00247217
29 *306:50 *328:22 0
30 *310:18 *328:22 0.000434781
31 *313:8 *328:38 0
32 *322:35 *328:38 0.000448515
33 *327:20 *328:22 0
*RES
1 *2786:Y *328:22 39.1942 
2 *328:22 *2811:B_N 20 
3 *2786:Y *328:34 40 
4 *328:34 *328:38 31.4742 
5 *328:38 *2897:D 20 
*END

*D_NET *329 0.0102921
*CONN
*I *2975:A I *D sg13cmos5l_dlygate4sd3_1
*I *2813:B_N I *D sg13cmos5l_nor2b_1
*I *2789:Y O *D sg13cmos5l_nor3_1
*CAP
1 *2975:A 0
2 *2813:B_N 0.000366651
3 *2789:Y 0.000115371
4 *329:28 0.000864778
5 *329:20 0.00244286
6 *329:12 0.00209085
7 *329:8 0.000261483
8 *2745:A *329:28 0
9 *2757:A1 *329:20 0
10 *2765:B *329:28 0
11 *2765:A_N *2813:B_N 0
12 *2773:B *329:20 0
13 *2790:A *329:12 0.000207964
14 *2790:A *329:20 1.54556e-05
15 *2795:A *329:20 0
16 *2795:B *329:20 0
17 *2802:C *329:28 0.000306035
18 *2803:B1 *2813:B_N 0
19 *2804:C *329:28 0.000143932
20 *2812:A1 *2813:B_N 0
21 *2891:D *329:20 0
22 *2891:CLK *329:20 0
23 *2892:RESET_B *329:20 0.000447844
24 *2979:A *329:12 0
25 *2979:A *329:20 0
26 *3018:A *2813:B_N 0
27 *106:10 *2813:B_N 1.54008e-05
28 *115:34 *2813:B_N 0
29 *116:55 *329:20 0
30 *131:8 *329:28 0.000287672
31 *143:43 *329:8 0.000554973
32 *157:55 *329:20 0
33 *161:38 *329:20 0
34 *201:8 *329:20 0
35 *214:12 *329:20 0
36 *216:10 *329:20 0
37 *249:56 *329:20 0
38 *249:74 *329:28 0.000159096
39 *249:84 *329:28 0.000395167
40 *250:19 *329:20 0.000341544
41 *252:88 *329:20 0.000273562
42 *254:22 *329:20 0.000501218
43 *312:12 *329:20 0
44 *323:10 *329:20 0
45 *326:14 *329:20 0
46 *327:36 *329:8 0.000500259
*RES
1 *2789:Y *329:8 42.575 
2 *329:8 *329:12 21.4008 
3 *329:12 *329:20 38.1396 
4 *329:20 *329:28 45.7062 
5 *329:28 *2813:B_N 43.6612 
6 *329:12 *2975:A 20 
*END

*D_NET *330 0.0114746
*CONN
*I *2965:A I *D sg13cmos5l_dlygate4sd3_1
*I *2815:B_N I *D sg13cmos5l_nor2b_1
*I *2792:Y O *D sg13cmos5l_nor3_1
*CAP
1 *2965:A 0
2 *2815:B_N 0
3 *2792:Y 0.000109689
4 *330:41 0.000638139
5 *330:28 0.000669103
6 *330:20 0.00174097
7 *330:14 0.00211843
8 *330:10 0.000518113
9 *330:20 *333:38 0.00044728
10 *330:28 *333:22 0.000759678
11 *2757:A1 *330:41 0
12 *2796:A2 *330:20 0
13 *2802:B *330:20 0
14 *2817:A *330:28 0
15 *2820:B1 *330:28 0.000209648
16 *89:98 *330:20 0
17 *99:10 *330:41 0
18 *108:10 *330:20 0.000237983
19 *110:20 *330:14 0.000164298
20 *110:20 *330:20 0.000603826
21 *110:33 *330:14 0.000604216
22 *116:25 *330:20 0
23 *116:36 *330:20 0
24 *122:16 *330:10 0.000111476
25 *123:8 *330:41 0.000128663
26 *207:8 *330:41 0
27 *207:14 *330:14 0.000310009
28 *214:8 *330:41 0.000341621
29 *215:10 *330:20 0
30 *215:28 *330:41 0
31 *241:53 *330:28 0
32 *246:12 *330:20 0
33 *246:63 *330:41 0
34 *250:31 *330:28 0.000209775
35 *250:75 *330:28 0.000235142
36 *252:80 *330:10 7.65602e-05
37 *306:24 *330:20 0.000448401
38 *313:8 *330:10 0
39 *313:14 *330:14 0
40 *328:22 *330:28 0.000791572
*RES
1 *2792:Y *330:10 41.1021 
2 *330:10 *330:14 25.0779 
3 *330:14 *330:20 33.3694 
4 *330:20 *330:28 48.1164 
5 *330:28 *2815:B_N 40 
6 *330:14 *330:41 46.283 
7 *330:41 *2965:A 20 
*END

*D_NET *331 0.00555623
*CONN
*I *2960:A I *D sg13cmos5l_dlygate4sd3_1
*I *2817:B_N I *D sg13cmos5l_nor2b_1
*I *2795:Y O *D sg13cmos5l_nor3_1
*CAP
1 *2960:A 0.000345448
2 *2817:B_N 0.000462155
3 *2795:Y 0.00021256
4 *331:20 0.00125717
5 *331:10 0.00135302
6 *2817:B_N *3016:A 0
7 *2795:B *331:10 0
8 *2796:A2 *331:20 0
9 *2817:A *2817:B_N 1.54556e-05
10 *2971:A *331:10 0.00020884
11 *110:20 *331:20 0.000182389
12 *116:14 *331:20 0
13 *116:47 *331:10 0
14 *126:10 *2960:A 0
15 *127:8 *331:20 0.000181192
16 *210:8 *2960:A 0
17 *210:8 *331:20 0.000236573
18 *224:20 *2960:A 0
19 *224:20 *331:20 0
20 *249:66 *331:20 0
21 *249:131 *331:20 0
22 *306:38 *331:20 0.00034172
23 *324:36 *331:20 0
24 *327:20 *2817:B_N 0.000759702
25 *328:22 *2817:B_N 0
*RES
1 *2795:Y *331:10 42.1836 
2 *331:10 *331:20 49.3009 
3 *331:20 *2817:B_N 45.0779 
4 *331:10 *2960:A 43.5638 
*END

*D_NET *332 0.00364744
*CONN
*I *2819:B_N I *D sg13cmos5l_nor2b_1
*I *2968:A I *D sg13cmos5l_dlygate4sd3_1
*I *2798:Y O *D sg13cmos5l_nor3_1
*CAP
1 *2819:B_N 0.0005288
2 *2968:A 0.000223825
3 *2798:Y 4.27129e-05
4 *332:8 0.000795339
5 *2796:A2 *2968:A 0.00033942
6 *2901:RESET_B *2819:B_N 0.000533711
7 *2902:D *2968:A 0
8 *116:47 *2968:A 0.000339311
9 *126:10 *2968:A 0
10 *150:6 *2819:B_N 0
11 *151:27 *2819:B_N 0.000715662
12 *151:27 *332:8 0.000128662
13 *159:22 *2819:B_N 0
14 *159:24 *2819:B_N 0
15 *159:24 *332:8 0
*RES
1 *2798:Y *332:8 40.5974 
2 *332:8 *2968:A 42.6986 
3 *332:8 *2819:B_N 46.8804 
*END

*D_NET *333 0.00672203
*CONN
*I *2962:A I *D sg13cmos5l_dlygate4sd3_1
*I *2821:B_N I *D sg13cmos5l_nor2b_1
*I *2801:Y O *D sg13cmos5l_nor3_1
*CAP
1 *2962:A 0.000125235
2 *2821:B_N 0
3 *2801:Y 0.000578856
4 *333:38 0.000336102
5 *333:22 0.00118606
6 *333:8 0.00155405
7 *2798:B *2962:A 0.000176496
8 *2798:C *2962:A 0
9 *2800:B1 *333:38 0
10 *2801:B *333:38 0.000112663
11 *2803:B1 *333:8 0.000931996
12 *2811:A *333:22 0.000177406
13 *2820:A1 *333:22 0
14 *2821:A *333:22 0
15 *2822:B1 *333:22 0
16 *2881:CLK *333:22 0
17 *2902:D *333:38 0.000112008
18 *116:25 *333:8 0
19 *116:36 *333:8 0
20 *215:10 *2962:A 1.54008e-05
21 *250:31 *333:22 0.000208802
22 *250:37 *333:22 0
23 *251:39 *333:22 0
24 *330:20 *333:38 0.00044728
25 *330:28 *333:22 0.000759678
*RES
1 *2801:Y *333:8 44.3054 
2 *333:8 *333:22 32.36 
3 *333:22 *2821:B_N 20 
4 *2801:Y *333:38 42.8325 
5 *333:38 *2962:A 41.1845 
*END

*D_NET *334 0.00447038
*CONN
*I *3016:A I *D sg13cmos5l_dlygate4sd3_1
*I *2823:B_N I *D sg13cmos5l_nor2b_1
*I *2804:Y O *D sg13cmos5l_nor3_1
*CAP
1 *3016:A 0.000339584
2 *2823:B_N 0.000701358
3 *2804:Y 0.000147333
4 *334:8 0.00118827
5 *2817:B_N *3016:A 0
6 *2823:A *2823:B_N 1.54556e-05
7 *2903:D *334:8 0
8 *133:8 *2823:B_N 0
9 *143:24 *2823:B_N 0
10 *233:28 *2823:B_N 0.000234591
11 *241:18 *2823:B_N 0
12 *250:31 *3016:A 0.000128662
13 *250:31 *334:8 0
14 *250:37 *2823:B_N 0.00018211
15 *250:37 *3016:A 0.000106894
16 *251:27 *2823:B_N 0.000872459
17 *251:27 *3016:A 0.000553662
18 *328:22 *3016:A 0
*RES
1 *2804:Y *334:8 41.1845 
2 *334:8 *2823:B_N 48.5461 
3 *334:8 *3016:A 44.1921 
*END

*D_NET *335 0.00183522
*CONN
*I *2904:D I *D sg13cmos5l_dfrbpq_1
*I *2780:Y O *D sg13cmos5l_inv_1
*CAP
1 *2904:D 0.000138776
2 *2780:Y 0.000560551
3 *335:10 0.000699328
4 *2882:CLK *335:10 0
5 *2904:RESET_B *2904:D 0
6 *2904:RESET_B *335:10 0
7 *133:49 *335:10 0
8 *133:70 *2904:D 0
9 *233:6 *335:10 0
10 *236:8 *335:10 0
11 *236:16 *335:10 0.000436567
12 *265:18 *335:10 0
13 *276:28 *335:10 0
*RES
1 *2780:Y *335:10 45.7989 
2 *335:10 *2904:D 41.3184 
*END
